*SPEF "ieee 1481-1999"
*DESIGN "counter"
*DATE "10:51:07 Tuesday August 04, 2026"
*VENDOR "The OpenROAD Project"
*PROGRAM "OpenROAD"
*VERSION "dcf36133a369abc8f3c5e5738cd4d82e4903c0e0"
*DESIGN_FLOW "NAME_SCOPE LOCAL" "PIN_CAP NONE"
*DIVIDER /
*DELIMITER :
*BUS_DELIMITER []
*T_UNIT 1 NS
*C_UNIT 1 PF
*R_UNIT 1 OHM
*L_UNIT 1 HENRY

*NAME_MAP
*3 clk_i
*4 count_o[0]
*5 count_o[1]
*6 count_o[2]
*7 count_o[3]
*8 count_o[4]
*9 count_o[5]
*10 count_o[6]
*11 count_o[7]
*12 enable_i
*13 rst_ni
*14 _00_
*15 _01_
*16 _02_
*17 _03_
*18 _04_
*19 _05_
*20 _06_
*21 _07_
*22 _08_
*23 _09_
*24 _10_
*25 _11_
*26 _12_
*27 _13_
*28 _14_
*29 _15_
*30 _16_
*31 _17_
*32 _18_
*33 _19_
*34 _20_
*35 _21_
*36 _22_
*37 _23_
*38 _24_
*39 _25_
*40 _26_
*41 _27_
*42 _28_
*43 _29_
*44 clknet_0_clk_i
*45 clknet_1_0__leaf_clk_i
*46 clknet_1_1__leaf_clk_i
*47 net
*48 net1
*49 net10
*50 net11
*51 net12
*52 net13
*53 net14
*54 net15
*55 net16
*56 net17
*57 net18
*58 net19
*59 net2
*60 net20
*61 net21
*62 net22
*63 net23
*64 net24
*65 net25
*66 net26
*67 net27
*68 net28
*69 net29
*70 net3
*71 net30
*72 net31
*73 net32
*74 net33
*75 net4
*76 net5
*77 net6
*78 net7
*79 net8
*80 net9
*81 FILLER_0_0
*82 FILLER_0_105
*83 FILLER_0_112
*84 FILLER_0_119
*85 FILLER_0_126
*86 FILLER_0_133
*87 FILLER_0_14
*88 FILLER_0_140
*89 FILLER_0_147
*90 FILLER_0_149
*91 FILLER_0_21
*92 FILLER_0_28
*93 FILLER_0_35
*94 FILLER_0_42
*95 FILLER_0_49
*96 FILLER_0_56
*97 FILLER_0_63
*98 FILLER_0_7
*99 FILLER_0_70
*100 FILLER_0_77
*101 FILLER_0_84
*102 FILLER_0_91
*103 FILLER_0_98
*104 FILLER_10_102
*105 FILLER_10_109
*106 FILLER_10_11
*107 FILLER_10_116
*108 FILLER_10_123
*109 FILLER_10_130
*110 FILLER_10_137
*111 FILLER_10_144
*112 FILLER_10_148
*113 FILLER_10_18
*114 FILLER_10_25
*115 FILLER_10_32
*116 FILLER_10_39
*117 FILLER_10_4
*118 FILLER_10_46
*119 FILLER_10_53
*120 FILLER_10_60
*121 FILLER_10_67
*122 FILLER_10_74
*123 FILLER_10_81
*124 FILLER_10_88
*125 FILLER_10_95
*126 FILLER_11_0
*127 FILLER_11_106
*128 FILLER_11_118
*129 FILLER_11_125
*130 FILLER_11_132
*131 FILLER_11_139
*132 FILLER_11_14
*133 FILLER_11_146
*134 FILLER_11_21
*135 FILLER_11_28
*136 FILLER_11_35
*137 FILLER_11_42
*138 FILLER_11_49
*139 FILLER_11_56
*140 FILLER_11_63
*141 FILLER_11_7
*142 FILLER_11_85
*143 FILLER_11_92
*144 FILLER_11_99
*145 FILLER_12_0
*146 FILLER_12_123
*147 FILLER_12_130
*148 FILLER_12_132
*149 FILLER_12_142
*150 FILLER_12_149
*151 FILLER_12_17
*152 FILLER_12_24
*153 FILLER_12_31
*154 FILLER_12_35
*155 FILLER_12_67
*156 FILLER_12_7
*157 FILLER_12_9
*158 FILLER_13_0
*159 FILLER_13_103
*160 FILLER_13_123
*161 FILLER_13_130
*162 FILLER_13_132
*163 FILLER_13_137
*164 FILLER_13_144
*165 FILLER_13_148
*166 FILLER_13_17
*167 FILLER_13_24
*168 FILLER_13_28
*169 FILLER_13_4
*170 FILLER_13_65
*171 FILLER_13_82
*172 FILLER_13_92
*173 FILLER_13_99
*174 FILLER_14_0
*175 FILLER_14_123
*176 FILLER_14_130
*177 FILLER_14_137
*178 FILLER_14_14
*179 FILLER_14_144
*180 FILLER_14_148
*181 FILLER_14_21
*182 FILLER_14_28
*183 FILLER_14_54
*184 FILLER_14_61
*185 FILLER_14_63
*186 FILLER_14_7
*187 FILLER_14_73
*188 FILLER_14_75
*189 FILLER_14_89
*190 FILLER_14_96
*191 FILLER_15_0
*192 FILLER_15_123
*193 FILLER_15_130
*194 FILLER_15_137
*195 FILLER_15_144
*196 FILLER_15_148
*197 FILLER_15_19
*198 FILLER_15_26
*199 FILLER_15_28
*200 FILLER_15_56
*201 FILLER_15_66
*202 FILLER_15_7
*203 FILLER_15_73
*204 FILLER_15_85
*205 FILLER_15_92
*206 FILLER_16_0
*207 FILLER_16_107
*208 FILLER_16_122
*209 FILLER_16_129
*210 FILLER_16_136
*211 FILLER_16_143
*212 FILLER_16_19
*213 FILLER_16_26
*214 FILLER_16_28
*215 FILLER_16_43
*216 FILLER_16_71
*217 FILLER_17_0
*218 FILLER_17_101
*219 FILLER_17_11
*220 FILLER_17_123
*221 FILLER_17_130
*222 FILLER_17_132
*223 FILLER_17_137
*224 FILLER_17_144
*225 FILLER_17_148
*226 FILLER_17_16
*227 FILLER_17_23
*228 FILLER_17_27
*229 FILLER_17_59
*230 FILLER_17_66
*231 FILLER_17_7
*232 FILLER_17_70
*233 FILLER_17_91
*234 FILLER_18_0
*235 FILLER_18_104
*236 FILLER_18_109
*237 FILLER_18_123
*238 FILLER_18_130
*239 FILLER_18_137
*240 FILLER_18_144
*241 FILLER_18_149
*242 FILLER_18_16
*243 FILLER_18_20
*244 FILLER_18_26
*245 FILLER_18_33
*246 FILLER_18_4
*247 FILLER_18_42
*248 FILLER_18_52
*249 FILLER_18_59
*250 FILLER_18_63
*251 FILLER_18_69
*252 FILLER_18_76
*253 FILLER_18_9
*254 FILLER_18_97
*255 FILLER_1_0
*256 FILLER_1_105
*257 FILLER_1_112
*258 FILLER_1_119
*259 FILLER_1_126
*260 FILLER_1_133
*261 FILLER_1_14
*262 FILLER_1_140
*263 FILLER_1_147
*264 FILLER_1_149
*265 FILLER_1_21
*266 FILLER_1_28
*267 FILLER_1_35
*268 FILLER_1_42
*269 FILLER_1_49
*270 FILLER_1_56
*271 FILLER_1_63
*272 FILLER_1_7
*273 FILLER_1_70
*274 FILLER_1_77
*275 FILLER_1_84
*276 FILLER_1_91
*277 FILLER_1_98
*278 FILLER_2_0
*279 FILLER_2_105
*280 FILLER_2_112
*281 FILLER_2_119
*282 FILLER_2_126
*283 FILLER_2_133
*284 FILLER_2_14
*285 FILLER_2_140
*286 FILLER_2_147
*287 FILLER_2_149
*288 FILLER_2_21
*289 FILLER_2_28
*290 FILLER_2_35
*291 FILLER_2_42
*292 FILLER_2_49
*293 FILLER_2_56
*294 FILLER_2_63
*295 FILLER_2_7
*296 FILLER_2_70
*297 FILLER_2_77
*298 FILLER_2_84
*299 FILLER_2_91
*300 FILLER_2_98
*301 FILLER_3_102
*302 FILLER_3_109
*303 FILLER_3_11
*304 FILLER_3_116
*305 FILLER_3_123
*306 FILLER_3_130
*307 FILLER_3_137
*308 FILLER_3_144
*309 FILLER_3_148
*310 FILLER_3_18
*311 FILLER_3_25
*312 FILLER_3_32
*313 FILLER_3_39
*314 FILLER_3_4
*315 FILLER_3_46
*316 FILLER_3_53
*317 FILLER_3_60
*318 FILLER_3_67
*319 FILLER_3_74
*320 FILLER_3_81
*321 FILLER_3_88
*322 FILLER_3_95
*323 FILLER_4_0
*324 FILLER_4_105
*325 FILLER_4_112
*326 FILLER_4_119
*327 FILLER_4_126
*328 FILLER_4_133
*329 FILLER_4_14
*330 FILLER_4_140
*331 FILLER_4_147
*332 FILLER_4_149
*333 FILLER_4_21
*334 FILLER_4_28
*335 FILLER_4_35
*336 FILLER_4_42
*337 FILLER_4_49
*338 FILLER_4_56
*339 FILLER_4_63
*340 FILLER_4_7
*341 FILLER_4_70
*342 FILLER_4_77
*343 FILLER_4_84
*344 FILLER_4_91
*345 FILLER_4_98
*346 FILLER_5_0
*347 FILLER_5_105
*348 FILLER_5_112
*349 FILLER_5_119
*350 FILLER_5_126
*351 FILLER_5_133
*352 FILLER_5_14
*353 FILLER_5_140
*354 FILLER_5_147
*355 FILLER_5_149
*356 FILLER_5_21
*357 FILLER_5_28
*358 FILLER_5_35
*359 FILLER_5_42
*360 FILLER_5_49
*361 FILLER_5_56
*362 FILLER_5_63
*363 FILLER_5_7
*364 FILLER_5_70
*365 FILLER_5_77
*366 FILLER_5_84
*367 FILLER_5_91
*368 FILLER_5_98
*369 FILLER_6_0
*370 FILLER_6_105
*371 FILLER_6_112
*372 FILLER_6_119
*373 FILLER_6_126
*374 FILLER_6_133
*375 FILLER_6_14
*376 FILLER_6_140
*377 FILLER_6_147
*378 FILLER_6_149
*379 FILLER_6_21
*380 FILLER_6_28
*381 FILLER_6_35
*382 FILLER_6_42
*383 FILLER_6_49
*384 FILLER_6_56
*385 FILLER_6_63
*386 FILLER_6_7
*387 FILLER_6_70
*388 FILLER_6_77
*389 FILLER_6_84
*390 FILLER_6_91
*391 FILLER_6_98
*392 FILLER_7_0
*393 FILLER_7_105
*394 FILLER_7_112
*395 FILLER_7_119
*396 FILLER_7_126
*397 FILLER_7_133
*398 FILLER_7_14
*399 FILLER_7_140
*400 FILLER_7_147
*401 FILLER_7_149
*402 FILLER_7_21
*403 FILLER_7_28
*404 FILLER_7_35
*405 FILLER_7_42
*406 FILLER_7_49
*407 FILLER_7_56
*408 FILLER_7_63
*409 FILLER_7_7
*410 FILLER_7_70
*411 FILLER_7_77
*412 FILLER_7_84
*413 FILLER_7_91
*414 FILLER_7_98
*415 FILLER_8_0
*416 FILLER_8_105
*417 FILLER_8_112
*418 FILLER_8_119
*419 FILLER_8_126
*420 FILLER_8_133
*421 FILLER_8_14
*422 FILLER_8_140
*423 FILLER_8_147
*424 FILLER_8_149
*425 FILLER_8_21
*426 FILLER_8_28
*427 FILLER_8_35
*428 FILLER_8_42
*429 FILLER_8_49
*430 FILLER_8_56
*431 FILLER_8_63
*432 FILLER_8_7
*433 FILLER_8_70
*434 FILLER_8_77
*435 FILLER_8_84
*436 FILLER_8_91
*437 FILLER_8_98
*438 FILLER_9_0
*439 FILLER_9_105
*440 FILLER_9_112
*441 FILLER_9_119
*442 FILLER_9_126
*443 FILLER_9_133
*444 FILLER_9_14
*445 FILLER_9_140
*446 FILLER_9_147
*447 FILLER_9_149
*448 FILLER_9_21
*449 FILLER_9_28
*450 FILLER_9_35
*451 FILLER_9_42
*452 FILLER_9_49
*453 FILLER_9_56
*454 FILLER_9_63
*455 FILLER_9_7
*456 FILLER_9_70
*457 FILLER_9_77
*458 FILLER_9_84
*459 FILLER_9_91
*460 FILLER_9_98
*461 _38_
*462 _39_
*463 _40_
*464 _41_
*465 _42_
*466 _43_
*467 _44_
*468 _45_
*469 _46_
*470 _47_
*471 _48_
*472 _49_
*473 _50_
*474 _51_
*475 _52_
*476 _53_
*477 _54_
*478 _55_
*479 _56_
*480 _57_
*481 _58_
*482 _59_
*483 _60_
*484 _61_
*485 _62_
*486 _63_
*487 _64_
*488 _65_
*489 _66_
*490 _67_
*491 _68_
*492 _68__18
*493 _69_
*494 _69__17
*495 _70_
*496 _70__15
*497 _71_
*498 _71__13
*499 _72_
*500 _72__11
*501 _73_
*502 _73__16
*503 _74_
*504 _74__12
*505 _75_
*506 _75__14
*507 clkbuf_0_clk_i
*508 clkbuf_1_0__f_clk_i
*509 clkbuf_1_1__f_clk_i
*510 hold19
*511 hold20
*512 hold21
*513 hold22
*514 hold23
*515 hold24
*516 hold25
*517 hold26
*518 hold27
*519 hold28
*520 hold29
*521 hold30
*522 hold31
*523 hold32
*524 hold33
*525 hold34
*526 input1
*527 input2
*528 output10
*529 output3
*530 output4
*531 output5
*532 output6
*533 output7
*534 output8
*535 output9

*PORTS
clk_i I
count_o[0] O
count_o[1] O
count_o[2] O
count_o[3] O
count_o[4] O
count_o[5] O
count_o[6] O
count_o[7] O
enable_i I
rst_ni I

*D_NET *3 0.00530153
*CONN
*P clk_i I
*I *507:A I *D sg13cmos5l_buf_8
*CAP
1 clk_i 0.0025436
2 *507:A 0.000107162
3 *3:16 0.00265076
4 *507:A *517:A 0
5 *3:16 *475:B1 0
6 *3:16 *478:C 0
7 *3:16 *517:A 0
8 *3:16 *22:54 0
9 *3:16 *22:58 0
10 *3:16 *27:25 0
11 *3:16 *29:12 0
12 *3:16 *34:10 0
13 *3:16 *48:42 0
14 *3:16 *51:10 0
15 *3:16 *68:10 0
16 *3:16 *68:25 0
17 *3:16 *77:8 0
*RES
1 clk_i *3:16 44.4363 
2 *3:16 *507:A 21.0918 
*END

*D_NET *4 0.00049185
*CONN
*P count_o[0] O
*I *529:X O *D sg13cmos5l_buf_1
*CAP
1 count_o[0] 0.000245925
2 *529:X 0.000245925
*RES
1 *529:X count_o[0] 22.9973 
*END

*D_NET *5 0.000489762
*CONN
*P count_o[1] O
*I *530:X O *D sg13cmos5l_buf_1
*CAP
1 count_o[1] 0.000244881
2 *530:X 0.000244881
*RES
1 *530:X count_o[1] 22.6471 
*END

*D_NET *6 0.000630097
*CONN
*P count_o[2] O
*I *531:X O *D sg13cmos5l_buf_1
*CAP
1 count_o[2] 0.000221491
2 *531:X 9.35576e-05
3 *6:8 0.000315048
4 *6:8 *30:10 0
*RES
1 *531:X *6:8 41.0918 
2 *6:8 count_o[2] 22.6471 
*END

*D_NET *7 0.00049185
*CONN
*P count_o[3] O
*I *532:X O *D sg13cmos5l_buf_1
*CAP
1 count_o[3] 0.000245925
2 *532:X 0.000245925
*RES
1 *532:X count_o[3] 22.9973 
*END

*D_NET *8 0.000825074
*CONN
*P count_o[4] O
*I *533:X O *D sg13cmos5l_buf_1
*CAP
1 count_o[4] 0.000221491
2 *533:X 0.000191046
3 *8:8 0.000412537
4 *8:8 *57:10 0
*RES
1 *533:X *8:8 42.3278 
2 *8:8 count_o[4] 22.6471 
*END

*D_NET *9 0.000509415
*CONN
*P count_o[5] O
*I *534:X O *D sg13cmos5l_buf_1
*CAP
1 count_o[5] 0.000254707
2 *534:X 0.000254707
3 count_o[5] *534:A 0
4 count_o[5] *10:10 0
*RES
1 *534:X count_o[5] 22.9973 
*END

*D_NET *10 0.000962207
*CONN
*P count_o[6] O
*I *535:X O *D sg13cmos5l_buf_1
*CAP
1 count_o[6] 0.000147979
2 *535:X 0.000333125
3 *10:10 0.000481103
4 *10:10 *20:10 0
5 count_o[5] *10:10 0
*RES
1 *535:X *10:10 44.0376 
2 *10:10 count_o[6] 21.7819 
*END

*D_NET *11 0.00049185
*CONN
*P count_o[7] O
*I *528:X O *D sg13cmos5l_buf_1
*CAP
1 count_o[7] 0.000245925
2 *528:X 0.000245925
*RES
1 *528:X count_o[7] 22.9973 
*END

*D_NET *12 0.000635506
*CONN
*P enable_i I
*I *526:A I *D sg13cmos5l_buf_1
*CAP
1 enable_i 0.000317753
2 *526:A 0.000317753
*RES
1 enable_i *526:A 43.8934 
*END

*D_NET *13 0.000715249
*CONN
*P rst_ni I
*I *527:A I *D sg13cmos5l_buf_1
*CAP
1 rst_ni 0.000357625
2 *527:A 0.000357625
*RES
1 rst_ni *527:A 44.223 
*END

*D_NET *14 0.000977049
*CONN
*I *491:D I *D sg13cmos5l_dfrbpq_1
*I *463:Y O *D sg13cmos5l_nor2_1
*CAP
1 *491:D 0
2 *463:Y 0.000488524
3 *14:8 0.000488524
4 *14:8 *22:12 0
5 *14:8 *56:8 0
6 *14:8 *59:25 0
7 *14:8 *74:10 0
*RES
1 *463:Y *14:8 45.7886 
2 *14:8 *491:D 40 
*END

*D_NET *15 0.00118667
*CONN
*I *493:D I *D sg13cmos5l_dfrbpq_1
*I *466:Y O *D sg13cmos5l_nor2_1
*CAP
1 *493:D 5.74736e-05
2 *466:Y 0.000535864
3 *15:8 0.000593337
4 *493:D *69:12 0
5 *15:8 *471:B 0
*RES
1 *466:Y *15:8 44.5526 
2 *15:8 *493:D 40.5356 
*END

*D_NET *16 0.000313114
*CONN
*I *495:D I *D sg13cmos5l_dfrbpq_1
*I *470:Y O *D sg13cmos5l_nor2_1
*CAP
1 *495:D 0.000132631
2 *470:Y 0.000132631
3 *495:D *470:B 4.78524e-05
4 *495:D *495:RESET_B 0
*RES
1 *470:Y *495:D 41.6995 
*END

*D_NET *17 0.00109471
*CONN
*I *497:D I *D sg13cmos5l_dfrbpq_1
*I *473:Y O *D sg13cmos5l_nor2_1
*CAP
1 *497:D 0.000419515
2 *473:Y 0.000419515
3 *497:D *473:B 0.000144009
4 *497:D *497:RESET_B 0
5 *497:D *520:A 0
6 *497:D *531:A 0
7 *497:D *22:90 0.000111667
8 *497:D *75:12 0
9 *497:D *75:24 0
*RES
1 *473:Y *497:D 43.914 
*END

*D_NET *18 0.000542044
*CONN
*I *518:A I *D sg13cmos5l_dlygate4sd3_1
*I *477:Y O *D sg13cmos5l_a21oi_1
*CAP
1 *518:A 3.61014e-05
2 *477:Y 0.000234921
3 *18:8 0.000271022
4 *518:A *477:A2 0
5 *518:A *499:RESET_B 0
6 *18:8 *59:25 0
7 *18:8 *66:12 0
*RES
1 *477:Y *18:8 42.8222 
2 *18:8 *518:A 40.3193 
*END

*D_NET *19 0.00156204
*CONN
*I *512:A I *D sg13cmos5l_dlygate4sd3_1
*I *481:Y O *D sg13cmos5l_a21oi_1
*CAP
1 *512:A 0.000116541
2 *481:Y 0.000245619
3 *19:10 0.00036216
4 *512:A *501:RESET_B 0.000176742
5 *512:A *533:A 0
6 *19:10 *481:B1 7.97166e-05
7 *19:10 *485:B1 0.000501547
8 *19:10 *501:D 7.97166e-05
*RES
1 *481:Y *19:10 42.8634 
2 *19:10 *512:A 41.1845 
*END

*D_NET *20 0.00130329
*CONN
*I *515:A I *D sg13cmos5l_dlygate4sd3_1
*I *485:Y O *D sg13cmos5l_a21oi_1
*CAP
1 *515:A 0.000104131
2 *485:Y 0.000249315
3 *20:10 0.000353446
4 *515:A *514:A 0
5 *515:A *62:12 4.70638e-05
6 *20:10 *485:A1 4.78688e-05
7 *20:10 *534:A 0
8 *20:10 *535:A 0
9 *20:10 *62:12 0.00050146
10 *10:10 *20:10 0
*RES
1 *485:Y *20:10 43.3578 
2 *20:10 *515:A 40.9682 
*END

*D_NET *21 0.00197019
*CONN
*I *524:A I *D sg13cmos5l_dlygate4sd3_1
*I *490:X O *D sg13cmos5l_mux2_1
*CAP
1 *524:A 0
2 *490:X 0.000635981
3 *21:10 0.000635981
4 *21:10 *490:A0 0
5 *21:10 *490:A1 0
6 *21:10 *505:RESET_B 1.54008e-05
7 *21:10 *40:8 0
8 *21:10 *49:25 0
9 *21:10 *52:8 0
10 *21:10 *59:25 2.20966e-05
11 *21:10 *73:8 0.000660729
*RES
1 *490:X *21:10 48.117 
2 *21:10 *524:A 40 
*END

*D_NET *22 0.0159015
*CONN
*I *473:A I *D sg13cmos5l_nor2_1
*I *485:B1 I *D sg13cmos5l_a21oi_1
*I *481:B1 I *D sg13cmos5l_a21oi_1
*I *477:B1 I *D sg13cmos5l_a21oi_1
*I *470:A I *D sg13cmos5l_nor2_1
*I *466:A I *D sg13cmos5l_nor2_1
*I *463:A I *D sg13cmos5l_nor2_1
*I *461:Y O *D sg13cmos5l_inv_1
*CAP
1 *473:A 0
2 *485:B1 0.00065475
3 *481:B1 0.000201042
4 *477:B1 0.000181593
5 *470:A 0
6 *466:A 0.000477188
7 *463:A 0
8 *461:Y 0
9 *22:90 0.000954098
10 *22:58 0.00117293
11 *22:54 0.00219056
12 *22:41 0.00153333
13 *22:30 0.000845555
14 *22:12 0.000816148
15 *22:6 0.000752106
16 *466:A *462:B 0
17 *466:A *463:B 0
18 *466:A *67:34 0.000177457
19 *477:B1 *477:A1 0.000112683
20 *481:B1 *481:A1 1.54008e-05
21 *481:B1 *481:A2 0
22 *481:B1 *501:D 0
23 *485:B1 *535:A 0
24 *485:B1 *27:71 0
25 *485:B1 *79:14 0.000208615
26 *22:12 *462:A 0
27 *22:12 *463:B 0
28 *22:12 *48:12 0
29 *22:12 *59:25 7.51285e-05
30 *22:30 *59:25 0.0014611
31 *22:41 *59:25 0.00156924
32 *22:54 *474:A 7.44324e-05
33 *22:54 *476:B 0.00027466
34 *22:54 *476:C 0.00017199
35 *22:54 *477:A1 0.000274594
36 *22:54 *479:A1 0
37 *22:54 *479:A2 0
38 *22:54 *497:CLK 0
39 *22:54 *532:A 4.76327e-05
40 *22:54 *27:25 0.000129181
41 *22:54 *31:23 0
42 *22:54 *76:8 0
43 *22:54 *76:15 0
44 *22:54 *77:8 1.54556e-05
45 *22:58 *479:A1 0
46 *22:58 *27:71 0
47 *22:90 *473:B 0
48 *22:90 *532:A 0.00030564
49 *22:90 *30:10 0.00050063
50 *22:90 *70:23 0
51 *22:90 *75:24 1.54556e-05
52 *497:D *22:90 0.000111667
53 *3:16 *22:54 0
54 *3:16 *22:58 0
55 *14:8 *22:12 0
56 *19:10 *481:B1 7.97166e-05
57 *19:10 *485:B1 0.000501547
*RES
1 *461:Y *22:6 40 
2 *22:6 *22:12 23.8522 
3 *22:12 *463:A 20 
4 *22:12 *466:A 25.1912 
5 *22:6 *22:30 6.7774 
6 *22:30 *470:A 40 
7 *22:30 *22:41 27.2718 
8 *22:41 *477:B1 21.8334 
9 *22:41 *22:54 9.2082 
10 *22:54 *22:58 22.8222 
11 *22:58 *481:B1 41.751 
12 *22:58 *485:B1 47.1894 
13 *22:54 *22:90 49.27 
14 *22:90 *473:A 20 
*END

*D_NET *23 0.000177135
*CONN
*I *463:B I *D sg13cmos5l_nor2_1
*I *462:Y O *D sg13cmos5l_xnor2_1
*CAP
1 *463:B 8.85674e-05
2 *462:Y 8.85674e-05
3 *463:B *462:A 0
4 *466:A *463:B 0
5 *22:12 *463:B 0
*RES
1 *462:Y *463:B 40.9167 
*END

*D_NET *24 0.000870027
*CONN
*I *465:B I *D sg13cmos5l_xor2_1
*I *464:Y O *D sg13cmos5l_nand2_1
*CAP
1 *465:B 0.00035511
2 *464:Y 0.00035511
3 *465:B *464:B 0
4 *465:B *471:C 0.000112426
5 *465:B *55:10 4.7381e-05
6 *465:B *67:23 0
*RES
1 *464:Y *465:B 43.4917 
*END

*D_NET *25 0.000471226
*CONN
*I *466:B I *D sg13cmos5l_nor2_1
*I *465:X O *D sg13cmos5l_xor2_1
*CAP
1 *466:B 0.000227913
2 *465:X 0.000227913
3 *466:B *471:C 0
4 *466:B *471:D 1.54008e-05
5 *466:B *67:34 0
*RES
1 *465:X *466:B 41.751 
*END

*D_NET *26 0.00217514
*CONN
*I *468:A I *D sg13cmos5l_buf_4
*I *467:Y O *D sg13cmos5l_nand3_1
*CAP
1 *468:A 0.000838139
2 *467:Y 0.000838139
3 *468:A *493:RESET_B 0
4 *468:A *48:59 0.000498866
5 *468:A *69:12 0
*RES
1 *467:Y *468:A 46.6126 
*END

*D_NET *27 0.0121922
*CONN
*I *483:A1 I *D sg13cmos5l_o21ai_1
*I *484:B I *D sg13cmos5l_or3_1
*I *489:B I *D sg13cmos5l_nor3_2
*I *479:A1 I *D sg13cmos5l_o21ai_1
*I *480:B I *D sg13cmos5l_or3_1
*I *475:A1 I *D sg13cmos5l_o21ai_1
*I *476:B I *D sg13cmos5l_or3_1
*I *469:B I *D sg13cmos5l_xor2_1
*I *468:X O *D sg13cmos5l_buf_4
*CAP
1 *483:A1 0.000197521
2 *484:B 0.000211753
3 *489:B 0.000454425
4 *479:A1 0.000297225
5 *480:B 2.98087e-05
6 *475:A1 0
7 *476:B 0.000184382
8 *469:B 0.000251812
9 *468:X 0.000826276
10 *27:82 0.000540662
11 *27:71 0.0011348
12 *27:47 0.000394272
13 *27:45 0.00131233
14 *27:25 0.000270708
15 *27:21 0.00168606
16 *27:8 0.00198172
17 *469:B *469:A 0
18 *469:B *471:B 0
19 *469:B *70:12 0
20 *469:B *74:10 0
21 *476:B *475:B1 0
22 *476:B *476:A 0
23 *479:A1 *479:A2 0.000273299
24 *479:A1 *532:A 0
25 *480:B *479:A2 0
26 *480:B *34:10 1.54556e-05
27 *480:B *57:23 4.78521e-05
28 *483:A1 *483:B1 0.000128662
29 *483:A1 *483:A2 1.54008e-05
30 *483:A1 *484:C 0
31 *483:A1 *61:8 0
32 *484:B *484:A 0.000306662
33 *484:B *484:C 0
34 *489:B *484:C 0
35 *489:B *488:A 0
36 *489:B *489:C 0
37 *489:B *533:A 0
38 *489:B *46:30 0
39 *489:B *80:10 0
40 *27:8 *48:59 0
41 *27:8 *68:10 0
42 *27:8 *69:12 0
43 *27:8 *70:12 0
44 *27:8 *70:23 0
45 *27:21 *471:B 0
46 *27:21 *44:11 0
47 *27:21 *74:10 0
48 *27:21 *76:21 0
49 *27:45 *478:C 0
50 *27:45 *478:A 8.0216e-05
51 *27:45 *482:D 0.000144583
52 *27:45 *34:10 0
53 *27:45 *44:11 0
54 *27:45 *57:31 0
55 *27:45 *76:43 0
56 *27:47 *57:31 0.00012816
57 *27:71 *57:31 0.000212543
58 *27:71 *80:10 0.000448842
59 *27:82 *61:8 0
60 *27:82 *80:10 0.000212958
61 *485:B1 *27:71 0
62 *3:16 *27:25 0
63 *22:54 *476:B 0.00027466
64 *22:54 *479:A1 0
65 *22:54 *27:25 0.000129181
66 *22:58 *479:A1 0
67 *22:58 *27:71 0
*RES
1 *468:X *27:8 46.8083 
2 *27:8 *469:B 42.4664 
3 *27:8 *27:21 7.2718 
4 *27:21 *27:25 20.9682 
5 *27:25 *476:B 21.8334 
6 *27:25 *475:A1 20 
7 *27:21 *27:45 45.9225 
8 *27:45 *27:47 0.8446 
9 *27:47 *480:B 40.3193 
10 *27:47 *479:A1 42.9973 
11 *27:45 *27:71 6.5302 
12 *27:71 *489:B 44.2127 
13 *27:71 *27:82 1.5862 
14 *27:82 *484:B 42.0497 
15 *27:82 *483:A1 42.1527 
*END

*D_NET *28 0.000844008
*CONN
*I *470:B I *D sg13cmos5l_nor2_1
*I *469:X O *D sg13cmos5l_xor2_1
*CAP
1 *470:B 0.000398078
2 *469:X 0.000398078
3 *470:B *469:A 0
4 *470:B *491:RESET_B 0
5 *470:B *491:CLK 0
6 *470:B *70:12 0
7 *495:D *470:B 4.78524e-05
*RES
1 *469:X *470:B 44.1612 
*END

*D_NET *29 0.00272327
*CONN
*I *472:B I *D sg13cmos5l_xor2_1
*I *471:Y O *D sg13cmos5l_nand4_1
*CAP
1 *472:B 0.00021473
2 *471:Y 0.000632376
3 *29:12 0.000847106
4 *472:B *467:B 1.54008e-05
5 *472:B *48:59 0.000273299
6 *472:B *69:12 0
7 *29:12 *465:A 8.0216e-05
8 *29:12 *48:34 0
9 *29:12 *68:25 0.00066014
10 *3:16 *29:12 0
*RES
1 *471:Y *29:12 45.253 
2 *29:12 *472:B 42.1836 
*END

*D_NET *30 0.0023665
*CONN
*I *522:A I *D sg13cmos5l_dlygate4sd3_1
*I *472:X O *D sg13cmos5l_xor2_1
*CAP
1 *522:A 0.000113714
2 *472:X 0.000448827
3 *30:10 0.000562542
4 *30:10 *48:59 7.94055e-05
5 *30:10 *70:23 0
6 *30:10 *75:24 0.000661385
7 *6:8 *30:10 0
8 *22:90 *30:10 0.00050063
*RES
1 *472:X *30:10 46.3242 
2 *30:10 *522:A 40.9682 
*END

*D_NET *31 0.000917618
*CONN
*I *475:A2 I *D sg13cmos5l_o21ai_1
*I *476:C I *D sg13cmos5l_or3_1
*I *474:Y O *D sg13cmos5l_nand2_1
*CAP
1 *475:A2 0
2 *476:C 0.000204339
3 *474:Y 0
4 *31:23 0.000161291
5 *31:4 0.00036563
6 *476:C *76:8 0
7 *476:C *76:15 0
8 *31:23 *474:A 1.43685e-05
9 *31:23 *76:15 0
10 *31:23 *76:19 0
11 *22:54 *476:C 0.00017199
12 *22:54 *31:23 0
*RES
1 *474:Y *31:4 20 
2 *31:4 *476:C 22.0343 
3 *31:4 *31:23 41.4111 
4 *31:23 *475:A2 20 
*END

*D_NET *32 0.000717945
*CONN
*I *517:A I *D sg13cmos5l_dlygate4sd3_1
*I *475:Y O *D sg13cmos5l_o21ai_1
*CAP
1 *517:A 0.000358972
2 *475:Y 0.000358972
3 *517:A *476:A 0
4 *517:A *477:A1 0
5 *517:A *482:C 0
6 *517:A *64:8 0
7 *517:A *78:17 0
8 *507:A *517:A 0
9 *3:16 *517:A 0
*RES
1 *475:Y *517:A 43.7286 
*END

*D_NET *33 0.00100532
*CONN
*I *477:A2 I *D sg13cmos5l_a21oi_1
*I *476:X O *D sg13cmos5l_or3_1
*CAP
1 *477:A2 0.000402941
2 *476:X 0.000402941
3 *477:A2 *477:A1 0.000199443
4 *477:A2 *66:12 0
5 *518:A *477:A2 0
*RES
1 *476:X *477:A2 44.1561 
*END

*D_NET *34 0.00130716
*CONN
*I *479:A2 I *D sg13cmos5l_o21ai_1
*I *480:C I *D sg13cmos5l_or3_1
*I *478:Y O *D sg13cmos5l_nand3_1
*CAP
1 *479:A2 0.000225334
2 *480:C 0
3 *478:Y 0.000276169
4 *34:10 0.000501503
5 *479:A2 *57:14 1.54008e-05
6 *479:A2 *57:23 0
7 *34:10 *57:23 0
8 *479:A1 *479:A2 0.000273299
9 *480:B *479:A2 0
10 *480:B *34:10 1.54556e-05
11 *3:16 *34:10 0
12 *22:54 *479:A2 0
13 *27:45 *34:10 0
*RES
1 *478:Y *34:10 22.5956 
2 *34:10 *480:C 20 
3 *34:10 *479:A2 22.266 
*END

*D_NET *35 0.00173641
*CONN
*I *511:A I *D sg13cmos5l_dlygate4sd3_1
*I *479:Y O *D sg13cmos5l_o21ai_1
*CAP
1 *511:A 0.000110673
2 *479:Y 0.000314406
3 *35:10 0.000425079
4 *511:A *481:A1 0
5 *511:A *501:RESET_B 0.00017658
6 *35:10 *57:10 0.000661801
7 *35:10 *57:14 4.78688e-05
*RES
1 *479:Y *35:10 43.3887 
2 *35:10 *511:A 41.1845 
*END

*D_NET *36 0.000654057
*CONN
*I *481:A2 I *D sg13cmos5l_a21oi_1
*I *480:X O *D sg13cmos5l_or3_1
*CAP
1 *481:A2 0.000198836
2 *480:X 0.000198836
3 *481:A2 *481:A1 1.54008e-05
4 *481:A2 *501:D 0
5 *481:A2 *57:23 0.000240984
6 *481:B1 *481:A2 0
*RES
1 *480:X *481:A2 41.9673 
*END

*D_NET *37 0.00415648
*CONN
*I *483:A2 I *D sg13cmos5l_o21ai_1
*I *484:C I *D sg13cmos5l_or3_1
*I *489:C I *D sg13cmos5l_nor3_2
*I *482:Y O *D sg13cmos5l_nand4_1
*CAP
1 *483:A2 0.000400877
2 *484:C 0.000570138
3 *489:C 8.83986e-05
4 *482:Y 0.000681857
5 *37:21 0.00110851
6 *37:10 0.000907748
7 *483:A2 *503:RESET_B 0.000208041
8 *483:A2 *503:D 0
9 *483:A2 *46:8 0
10 *483:A2 *49:25 0
11 *484:C *484:A 0
12 *484:C *503:RESET_B 0
13 *484:C *514:A 0
14 *484:C *46:30 0
15 *489:C *490:S 1.54008e-05
16 *489:C *46:12 8.02927e-05
17 *489:C *46:30 6.44205e-05
18 *37:10 *478:A 0
19 *37:10 *482:B 0
20 *37:10 *482:C 1.54008e-05
21 *37:10 *533:A 0
22 *37:10 *44:11 0
23 *37:10 *44:34 0
24 *37:10 *46:38 0
25 *37:10 *64:14 0
26 *37:21 *46:8 0
27 *483:A1 *483:A2 1.54008e-05
28 *483:A1 *484:C 0
29 *484:B *484:C 0
30 *489:B *484:C 0
31 *489:B *489:C 0
*RES
1 *482:Y *37:10 47.0349 
2 *37:10 *489:C 40.9682 
3 *37:10 *37:21 1.339 
4 *37:21 *484:C 45.2062 
5 *37:21 *483:A2 44.7174 
*END

*D_NET *38 0.00108542
*CONN
*I *514:A I *D sg13cmos5l_dlygate4sd3_1
*I *483:Y O *D sg13cmos5l_o21ai_1
*CAP
1 *514:A 0.000421599
2 *483:Y 0.000421599
3 *514:A *503:D 0.00024222
4 *514:A *62:12 0
5 *484:C *514:A 0
6 *515:A *514:A 0
*RES
1 *483:Y *514:A 44.3466 
*END

*D_NET *39 0.000308606
*CONN
*I *485:A2 I *D sg13cmos5l_a21oi_1
*I *484:X O *D sg13cmos5l_or3_1
*CAP
1 *485:A2 0.000114261
2 *484:X 0.000114261
3 *485:A2 *535:A 8.00842e-05
4 *485:A2 *79:14 0
*RES
1 *484:X *485:A2 41.133 
*END

*D_NET *40 0.00166723
*CONN
*I *490:A0 I *D sg13cmos5l_mux2_1
*I *486:X O *D sg13cmos5l_and2_1
*CAP
1 *490:A0 0.000291706
2 *486:X 0.00018969
3 *40:8 0.000481397
4 *490:A0 *490:A1 0.00046888
5 *490:A0 *490:S 0
6 *490:A0 *46:12 0
7 *40:8 *486:A 0
8 *40:8 *52:8 0.000235556
9 *40:8 *59:25 0
10 *21:10 *490:A0 0
11 *21:10 *40:8 0
*RES
1 *486:X *40:8 42.3278 
2 *40:8 *490:A0 43.3475 
*END

*D_NET *41 0.00104109
*CONN
*I *490:A1 I *D sg13cmos5l_mux2_1
*I *487:Y O *D sg13cmos5l_nor2b_1
*CAP
1 *490:A1 0.000286104
2 *487:Y 0.000286104
3 *490:A1 *505:RESET_B 0
4 *490:A1 *59:29 0
5 *490:A0 *490:A1 0.00046888
6 *21:10 *490:A1 0
*RES
1 *487:Y *490:A1 43.1312 
*END

*D_NET *42 0.000332864
*CONN
*I *489:A I *D sg13cmos5l_nor3_2
*I *488:Y O *D sg13cmos5l_inv_1
*CAP
1 *489:A 0.000158731
2 *488:Y 0.000158731
3 *489:A *488:A 1.54008e-05
4 *489:A *490:S 0
5 *489:A *78:17 0
*RES
1 *488:Y *489:A 42.0497 
*END

*D_NET *43 0.001339
*CONN
*I *490:S I *D sg13cmos5l_mux2_1
*I *489:Y O *D sg13cmos5l_nor3_2
*CAP
1 *490:S 0.0006618
2 *489:Y 0.0006618
3 *490:S *523:A 0
4 *490:S *46:12 0
5 *490:S *49:10 0
6 *489:A *490:S 0
7 *489:C *490:S 1.54008e-05
8 *490:A0 *490:S 0
*RES
1 *489:Y *490:S 46.5714 
*END

*D_NET *44 0.00312853
*CONN
*I *509:A I *D sg13cmos5l_buf_8
*I *508:A I *D sg13cmos5l_buf_8
*I *507:X O *D sg13cmos5l_buf_8
*CAP
1 *509:A 0
2 *508:A 4.76993e-05
3 *507:X 0
4 *44:34 0.000556792
5 *44:29 0.000556792
6 *44:11 0.00100747
7 *44:6 0.000959774
8 *508:A *495:RESET_B 0
9 *508:A *70:12 0
10 *44:11 *478:A 0
11 *44:11 *482:C 0
12 *44:11 *482:D 0
13 *44:11 *64:14 0
14 *44:11 *74:10 0
15 *44:34 *46:8 0
16 *44:34 *49:10 0
17 *44:34 *49:25 0
18 *27:21 *44:11 0
19 *27:45 *44:11 0
20 *37:10 *44:11 0
21 *37:10 *44:34 0
*RES
1 *507:X *44:6 40 
2 *44:6 *44:11 8.755 
3 *44:11 *508:A 40.5356 
4 *507:X *44:29 40 
5 *44:29 *44:34 6.0358 
6 *44:34 *509:A 40 
*END

*D_NET *45 0.00419169
*CONN
*I *493:CLK I *D sg13cmos5l_dfrbpq_1
*I *497:CLK I *D sg13cmos5l_dfrbpq_1
*I *495:CLK I *D sg13cmos5l_dfrbpq_1
*I *491:CLK I *D sg13cmos5l_dfrbpq_1
*I *508:X O *D sg13cmos5l_buf_8
*CAP
1 *493:CLK 2.16819e-05
2 *497:CLK 0.000365539
3 *495:CLK 0.00062082
4 *491:CLK 0.000130226
5 *508:X 0.000270711
6 *45:22 0.00125939
7 *45:18 0.000435197
8 *491:CLK *495:RESET_B 0
9 *491:CLK *70:12 0.000144074
10 *493:CLK *70:12 3.238e-05
11 *493:CLK *75:12 4.77425e-05
12 *495:CLK *495:RESET_B 0
13 *495:CLK *76:8 0
14 *495:CLK *76:15 0
15 *495:CLK *76:19 0
16 *497:CLK *482:C 0
17 *497:CLK *531:A 0
18 *497:CLK *69:12 0
19 *497:CLK *75:8 5.31192e-05
20 *45:18 *531:A 0
21 *45:18 *70:12 0.000208079
22 *45:18 *75:12 4.78192e-05
23 *45:22 *75:8 0.000554907
24 *470:B *491:CLK 0
25 *22:54 *497:CLK 0
*RES
1 *508:X *491:CLK 41.4008 
2 *508:X *45:18 21.4008 
3 *45:18 *45:22 22.8222 
4 *45:22 *495:CLK 45.9431 
5 *45:22 *497:CLK 43.1415 
6 *45:18 *493:CLK 20.3193 
*END

*D_NET *46 0.00549864
*CONN
*I *503:CLK I *D sg13cmos5l_dfrbpq_1
*I *501:CLK I *D sg13cmos5l_dfrbpq_1
*I *505:CLK I *D sg13cmos5l_dfrbpq_1
*I *499:CLK I *D sg13cmos5l_dfrbpq_1
*I *509:X O *D sg13cmos5l_buf_8
*CAP
1 *503:CLK 2.78332e-05
2 *501:CLK 0
3 *505:CLK 0
4 *499:CLK 0
5 *509:X 0.000185384
6 *46:38 0.000685557
7 *46:30 0.000874197
8 *46:18 0.000379437
9 *46:12 0.000847815
10 *46:10 0.000629185
11 *46:8 0.000185384
12 *46:8 *49:25 0
13 *46:12 *486:A 0
14 *46:12 *487:B_N 0
15 *46:12 *59:29 0
16 *46:18 *59:25 0.00141047
17 *46:38 *482:B 0
18 *46:38 *501:RESET_B 0
19 *46:38 *533:A 0.000128662
20 *483:A2 *46:8 0
21 *484:C *46:30 0
22 *489:B *46:30 0
23 *489:C *46:12 8.02927e-05
24 *489:C *46:30 6.44205e-05
25 *490:A0 *46:12 0
26 *490:S *46:12 0
27 *37:10 *46:38 0
28 *37:21 *46:8 0
29 *44:34 *46:8 0
*RES
1 *509:X *46:8 41.5862 
2 *46:8 *46:10 20 
3 *46:10 *46:12 4.429 
4 *46:12 *46:18 46.5302 
5 *46:18 *499:CLK 20 
6 *46:12 *505:CLK 20 
7 *46:10 *46:30 0.6931 
8 *46:30 *46:38 45.8607 
9 *46:38 *501:CLK 20 
10 *46:30 *503:CLK 20.3193 
*END

*D_NET *47 0.000741117
*CONN
*I *499:RESET_B I *D sg13cmos5l_dfrbpq_1
*I *500:L_HI O *D sg13cmos5l_tiehi
*CAP
1 *499:RESET_B 0.000370559
2 *500:L_HI 0.000370559
3 *499:RESET_B *477:A1 0
4 *499:RESET_B *66:12 0
5 *518:A *499:RESET_B 0
*RES
1 *500:L_HI *499:RESET_B 44.3466 
*END

*D_NET *48 0.00998482
*CONN
*I *467:A I *D sg13cmos5l_nand3_1
*I *464:A I *D sg13cmos5l_nand2_1
*I *471:A I *D sg13cmos5l_nand4_1
*I *462:A I *D sg13cmos5l_xnor2_1
*I *526:X O *D sg13cmos5l_buf_1
*CAP
1 *467:A 0
2 *464:A 0
3 *471:A 0
4 *462:A 4.00997e-05
5 *526:X 0.000265977
6 *48:59 0.000913783
7 *48:42 0.000305012
8 *48:34 0.00146996
9 *48:23 0.000816844
10 *48:12 0.0023714
11 *48:8 0.00203159
12 *462:A *462:B 1.54556e-05
13 *48:12 *59:12 0
14 *48:23 *462:B 0
15 *48:23 *471:B 0.000176925
16 *48:34 *471:C 0.000112519
17 *48:42 *471:C 7.51285e-05
18 *48:42 *67:23 0
19 *48:59 *471:C 3.23417e-05
20 *48:59 *55:10 0.000112058
21 *48:59 *70:23 0
22 *48:59 *75:24 0.000394151
23 *463:B *462:A 0
24 *468:A *48:59 0.000498866
25 *472:B *48:59 0.000273299
26 *3:16 *48:42 0
27 *22:12 *462:A 0
28 *22:12 *48:12 0
29 *27:8 *48:59 0
30 *29:12 *48:34 0
31 *30:10 *48:59 7.94055e-05
*RES
1 *526:X *48:8 42.575 
2 *48:8 *48:12 38.7048 
3 *48:12 *462:A 20.5356 
4 *48:12 *48:23 5.9534 
5 *48:23 *471:A 20 
6 *48:23 *48:34 2.2866 
7 *48:34 *48:42 42.6162 
8 *48:42 *464:A 20 
9 *48:34 *48:59 49.9292 
10 *48:59 *467:A 20 
*END

*D_NET *49 0.00479016
*CONN
*I *528:A I *D sg13cmos5l_buf_1
*I *523:A I *D sg13cmos5l_dlygate4sd3_1
*I *505:Q O *D sg13cmos5l_dfrbpq_1
*CAP
1 *528:A 0
2 *523:A 2.4438e-05
3 *505:Q 0.000349353
4 *49:25 0.00181262
5 *49:10 0.00218641
6 *49:10 *59:25 0
7 *49:10 *78:8 0
8 *49:10 *78:17 0
9 *49:25 *486:A 0.000288172
10 *49:25 *52:8 0
11 *49:25 *59:25 0
12 *49:25 *72:8 0.000129163
13 *483:A2 *49:25 0
14 *490:S *523:A 0
15 *490:S *49:10 0
16 *21:10 *49:25 0
17 *44:34 *49:10 0
18 *44:34 *49:25 0
19 *46:8 *49:25 0
*RES
1 *505:Q *49:10 43.914 
2 *49:10 *523:A 40.3193 
3 *49:10 *49:25 40.3528 
4 *49:25 *528:A 20 
*END

*D_NET *50 0.00200005
*CONN
*I *503:RESET_B I *D sg13cmos5l_dfrbpq_1
*I *504:L_HI O *D sg13cmos5l_tiehi
*CAP
1 *503:RESET_B 0.000142887
2 *504:L_HI 0.000688951
3 *50:12 0.000831839
4 *50:12 *483:B1 0.000128334
5 *483:A2 *503:RESET_B 0.000208041
6 *484:C *503:RESET_B 0
*RES
1 *504:L_HI *50:12 46.4272 
2 *50:12 *503:RESET_B 41.4008 
*END

*D_NET *51 0.000853996
*CONN
*I *497:RESET_B I *D sg13cmos5l_dfrbpq_1
*I *498:L_HI O *D sg13cmos5l_tiehi
*CAP
1 *497:RESET_B 0.000135871
2 *498:L_HI 0.000291127
3 *51:10 0.000426998
4 *497:RESET_B *531:A 0
5 *51:10 *531:A 0
6 *497:D *497:RESET_B 0
7 *3:16 *51:10 0
*RES
1 *498:L_HI *51:10 42.5853 
2 *51:10 *497:RESET_B 41.1845 
*END

*D_NET *52 0.00161388
*CONN
*I *505:RESET_B I *D sg13cmos5l_dfrbpq_1
*I *506:L_HI O *D sg13cmos5l_tiehi
*CAP
1 *505:RESET_B 0.000170147
2 *506:L_HI 0.000342191
3 *52:8 0.000512338
4 *505:RESET_B *59:29 0.000209582
5 *52:8 *59:37 0.000128663
6 *490:A1 *505:RESET_B 0
7 *21:10 *505:RESET_B 1.54008e-05
8 *21:10 *52:8 0
9 *40:8 *52:8 0.000235556
10 *49:25 *52:8 0
*RES
1 *506:L_HI *52:8 44.0582 
2 *52:8 *505:RESET_B 41.5518 
*END

*D_NET *53 0.0011334
*CONN
*I *495:RESET_B I *D sg13cmos5l_dfrbpq_1
*I *496:L_HI O *D sg13cmos5l_tiehi
*CAP
1 *495:RESET_B 0.0005667
2 *496:L_HI 0.0005667
3 *495:RESET_B *70:12 0
4 *491:CLK *495:RESET_B 0
5 *495:D *495:RESET_B 0
6 *495:CLK *495:RESET_B 0
7 *508:A *495:RESET_B 0
*RES
1 *496:L_HI *495:RESET_B 46.0152 
*END

*D_NET *54 0.00144575
*CONN
*I *501:RESET_B I *D sg13cmos5l_dfrbpq_1
*I *502:L_HI O *D sg13cmos5l_tiehi
*CAP
1 *501:RESET_B 0.000546213
2 *502:L_HI 0.000546213
3 *501:RESET_B *501:D 0
4 *501:RESET_B *533:A 0
5 *501:RESET_B *57:10 0
6 *511:A *501:RESET_B 0.00017658
7 *512:A *501:RESET_B 0.000176742
8 *46:38 *501:RESET_B 0
*RES
1 *502:L_HI *501:RESET_B 45.871 
*END

*D_NET *55 0.00280927
*CONN
*I *493:RESET_B I *D sg13cmos5l_dfrbpq_1
*I *494:L_HI O *D sg13cmos5l_tiehi
*CAP
1 *493:RESET_B 0.000179712
2 *494:L_HI 0.000488075
3 *55:16 0.000320586
4 *55:10 0.000628949
5 *493:RESET_B *69:12 0
6 *55:10 *67:23 0.00103251
7 *465:B *55:10 4.7381e-05
8 *468:A *493:RESET_B 0
9 *48:59 *55:10 0.000112058
*RES
1 *494:L_HI *55:10 45.5517 
2 *55:10 *55:16 41.6171 
3 *55:16 *493:RESET_B 41.4008 
*END

*D_NET *56 0.00189107
*CONN
*I *491:RESET_B I *D sg13cmos5l_dfrbpq_1
*I *492:L_HI O *D sg13cmos5l_tiehi
*CAP
1 *491:RESET_B 0.000176788
2 *492:L_HI 0.000277833
3 *56:8 0.000454621
4 *56:8 *59:25 0.000981825
5 *56:8 *74:10 0
6 *470:B *491:RESET_B 0
7 *14:8 *56:8 0
*RES
1 *492:L_HI *56:8 44.5526 
2 *56:8 *491:RESET_B 41.8334 
*END

*D_NET *57 0.00348837
*CONN
*I *480:A I *D sg13cmos5l_or3_1
*I *482:A I *D sg13cmos5l_nand4_1
*I *479:B1 I *D sg13cmos5l_o21ai_1
*I *510:X O *D sg13cmos5l_dlygate4sd3_1
*CAP
1 *480:A 0
2 *482:A 0
3 *479:B1 0
4 *510:X 0.000397812
5 *57:31 0.000277174
6 *57:23 0.000565364
7 *57:14 0.000384195
8 *57:10 0.000493817
9 *57:10 *533:A 0
10 *57:14 *481:A1 0
11 *57:14 *532:A 0
12 *57:23 *501:D 0
13 *57:31 *501:D 1.54008e-05
14 *479:A2 *57:14 1.54008e-05
15 *479:A2 *57:23 0
16 *480:B *57:23 4.78521e-05
17 *481:A2 *57:23 0.000240984
18 *501:RESET_B *57:10 0
19 *8:8 *57:10 0
20 *27:45 *57:31 0
21 *27:47 *57:31 0.00012816
22 *27:71 *57:31 0.000212543
23 *34:10 *57:23 0
24 *35:10 *57:10 0.000661801
25 *35:10 *57:14 4.78688e-05
*RES
1 *510:X *57:10 45.0882 
2 *57:10 *57:14 20.9682 
3 *57:14 *479:B1 20 
4 *57:14 *57:23 2.8634 
5 *57:23 *57:31 42.987 
6 *57:31 *482:A 20 
7 *57:23 *480:A 20 
*END

*D_NET *58 0.000444976
*CONN
*I *481:A1 I *D sg13cmos5l_a21oi_1
*I *511:X O *D sg13cmos5l_dlygate4sd3_1
*CAP
1 *481:A1 0.000207087
2 *511:X 0.000207087
3 *481:A1 *532:A 0
4 *481:A2 *481:A1 1.54008e-05
5 *481:B1 *481:A1 1.54008e-05
6 *511:A *481:A1 0
7 *57:14 *481:A1 0
*RES
1 *511:X *481:A1 41.5318 
*END

*D_NET *59 0.0109019
*CONN
*I *487:B_N I *D sg13cmos5l_nor2b_1
*I *486:B I *D sg13cmos5l_and2_1
*I *461:A I *D sg13cmos5l_inv_1
*I *527:X O *D sg13cmos5l_buf_1
*CAP
1 *487:B_N 2.10391e-05
2 *486:B 0
3 *461:A 0
4 *527:X 0.000163259
5 *59:37 8.49746e-05
6 *59:29 0.000251922
7 *59:25 0.00182571
8 *59:12 0.00203471
9 *59:8 0.000518169
10 *59:25 *66:12 0
11 *59:25 *70:8 0
12 *59:25 *72:8 0
13 *59:37 *486:A 0.000143977
14 *490:A1 *59:29 0
15 *505:RESET_B *59:29 0.000209582
16 *14:8 *59:25 0
17 *18:8 *59:25 0
18 *21:10 *59:25 2.20966e-05
19 *22:12 *59:25 7.51285e-05
20 *22:30 *59:25 0.0014611
21 *22:41 *59:25 0.00156924
22 *40:8 *59:25 0
23 *46:12 *487:B_N 0
24 *46:12 *59:29 0
25 *46:18 *59:25 0.00141047
26 *48:12 *59:12 0
27 *49:10 *59:25 0
28 *49:25 *59:25 0
29 *52:8 *59:37 0.000128663
30 *56:8 *59:25 0.000981825
*RES
1 *527:X *59:8 42.0806 
2 *59:8 *59:12 23.3475 
3 *59:12 *461:A 20 
4 *59:12 *59:25 46.9448 
5 *59:25 *59:29 21.6171 
6 *59:29 *59:37 41.1639 
7 *59:37 *486:B 20 
8 *59:29 *487:B_N 20.3193 
*END

*D_NET *60 0.000559391
*CONN
*I *501:D I *D sg13cmos5l_dfrbpq_1
*I *512:X O *D sg13cmos5l_dlygate4sd3_1
*CAP
1 *501:D 0.000232137
2 *512:X 0.000232137
3 *501:D *482:C 0
4 *481:A2 *501:D 0
5 *481:B1 *501:D 0
6 *501:RESET_B *501:D 0
7 *19:10 *501:D 7.97166e-05
8 *57:23 *501:D 0
9 *57:31 *501:D 1.54008e-05
*RES
1 *512:X *501:D 42.1327 
*END

*D_NET *61 0.00369031
*CONN
*I *483:B1 I *D sg13cmos5l_o21ai_1
*I *484:A I *D sg13cmos5l_or3_1
*I *488:A I *D sg13cmos5l_inv_1
*I *513:X O *D sg13cmos5l_dlygate4sd3_1
*CAP
1 *483:B1 9.42242e-05
2 *484:A 0.000207055
3 *488:A 0.000637801
4 *513:X 0
5 *61:8 0.00104096
6 *61:6 0.000290332
7 *484:A *535:A 0.000339004
8 *488:A *78:17 0
9 *488:A *80:10 0.000501875
10 *483:A1 *483:B1 0.000128662
11 *483:A1 *61:8 0
12 *484:B *484:A 0.000306662
13 *484:C *484:A 0
14 *489:A *488:A 1.54008e-05
15 *489:B *488:A 0
16 *27:82 *61:8 0
17 *50:12 *483:B1 0.000128334
*RES
1 *513:X *61:6 40 
2 *61:6 *61:8 1.5862 
3 *61:8 *488:A 45.6159 
4 *61:8 *484:A 42.4823 
5 *61:6 *483:B1 41.4111 
*END

*D_NET *62 0.00140289
*CONN
*I *485:A1 I *D sg13cmos5l_a21oi_1
*I *514:X O *D sg13cmos5l_dlygate4sd3_1
*CAP
1 *485:A1 7.6976e-05
2 *514:X 0.000326274
3 *62:12 0.00040325
4 *62:12 *535:A 0
5 *514:A *62:12 0
6 *515:A *62:12 4.70638e-05
7 *20:10 *485:A1 4.78688e-05
8 *20:10 *62:12 0.00050146
*RES
1 *514:X *62:12 43.4299 
2 *62:12 *485:A1 40.7519 
*END

*D_NET *63 0.000939919
*CONN
*I *503:D I *D sg13cmos5l_dfrbpq_1
*I *515:X O *D sg13cmos5l_dlygate4sd3_1
*CAP
1 *503:D 0.00034885
2 *515:X 0.00034885
3 *483:A2 *503:D 0
4 *514:A *503:D 0.00024222
*RES
1 *515:X *503:D 43.1312 
*END

*D_NET *64 0.0022047
*CONN
*I *482:B I *D sg13cmos5l_nand4_1
*I *475:B1 I *D sg13cmos5l_o21ai_1
*I *476:A I *D sg13cmos5l_or3_1
*I *516:X O *D sg13cmos5l_dlygate4sd3_1
*CAP
1 *482:B 0.000388064
2 *475:B1 6.11109e-05
3 *476:A 0.000185622
4 *516:X 0.000128988
5 *64:14 0.000555421
6 *64:8 0.000825741
7 *476:A *477:A1 2.21754e-05
8 *482:B *482:C 3.75762e-05
9 *482:B *78:17 0
10 *64:8 *78:17 0
11 *476:B *475:B1 0
12 *476:B *476:A 0
13 *517:A *476:A 0
14 *517:A *64:8 0
15 *3:16 *475:B1 0
16 *37:10 *482:B 0
17 *37:10 *64:14 0
18 *44:11 *64:14 0
19 *46:38 *482:B 0
*RES
1 *516:X *64:8 21.3184 
2 *64:8 *64:14 43.5638 
3 *64:14 *476:A 21.751 
4 *64:14 *475:B1 20.5356 
5 *64:8 *482:B 23.7745 
*END

*D_NET *65 0.00164241
*CONN
*I *477:A1 I *D sg13cmos5l_a21oi_1
*I *517:X O *D sg13cmos5l_dlygate4sd3_1
*CAP
1 *477:A1 0.000516758
2 *517:X 0.000516758
3 *476:A *477:A1 2.21754e-05
4 *477:A2 *477:A1 0.000199443
5 *477:B1 *477:A1 0.000112683
6 *499:RESET_B *477:A1 0
7 *517:A *477:A1 0
8 *22:54 *477:A1 0.000274594
*RES
1 *517:X *477:A1 45.7783 
*END

*D_NET *66 0.000453561
*CONN
*I *499:D I *D sg13cmos5l_dfrbpq_1
*I *518:X O *D sg13cmos5l_dlygate4sd3_1
*CAP
1 *499:D 0
2 *518:X 0.000226781
3 *66:12 0.000226781
4 *477:A2 *66:12 0
5 *499:RESET_B *66:12 0
6 *18:8 *66:12 0
7 *59:25 *66:12 0
*RES
1 *518:X *66:12 42.1321 
2 *66:12 *499:D 40 
*END

*D_NET *67 0.00525258
*CONN
*I *471:D I *D sg13cmos5l_nand4_1
*I *462:B I *D sg13cmos5l_xnor2_1
*I *464:B I *D sg13cmos5l_nand2_1
*I *467:C I *D sg13cmos5l_nand3_1
*I *519:X O *D sg13cmos5l_dlygate4sd3_1
*CAP
1 *471:D 8.07321e-05
2 *462:B 0.000279493
3 *464:B 2.79713e-05
4 *467:C 8.91035e-05
5 *519:X 0
6 *67:34 0.000761552
7 *67:23 0.000941942
8 *67:4 0.000601748
9 *467:C *467:B 0
10 *467:C *69:12 4.77425e-05
11 *471:D *471:B 0
12 *471:D *471:C 1.54008e-05
13 *67:23 *467:B 0
14 *67:23 *471:C 0.000181192
15 *67:23 *68:10 0
16 *67:23 *68:25 0.000872586
17 *67:23 *69:12 0.000112289
18 *67:34 *471:C 0
19 *462:A *462:B 1.54556e-05
20 *465:B *464:B 0
21 *465:B *67:23 0
22 *466:A *462:B 0
23 *466:A *67:34 0.000177457
24 *466:B *471:D 1.54008e-05
25 *466:B *67:34 0
26 *48:23 *462:B 0
27 *48:42 *67:23 0
28 *55:10 *67:23 0.00103251
*RES
1 *519:X *67:4 20 
2 *67:4 *467:C 20.9167 
3 *67:4 *67:23 47.7559 
4 *67:23 *464:B 20.3502 
5 *67:23 *67:34 3.7595 
6 *67:34 *462:B 22.9149 
7 *67:34 *471:D 21.1845 
*END

*D_NET *68 0.00426118
*CONN
*I *465:A I *D sg13cmos5l_xor2_1
*I *471:C I *D sg13cmos5l_nand4_1
*I *467:B I *D sg13cmos5l_nand3_1
*I *520:X O *D sg13cmos5l_dlygate4sd3_1
*CAP
1 *465:A 8.97559e-05
2 *471:C 0.000325475
3 *467:B 0.000118575
4 *520:X 0.000277046
5 *68:25 0.000632424
6 *68:10 0.000612815
7 *471:C *471:B 4.77425e-05
8 *68:10 *69:12 0
9 *465:B *471:C 0.000112426
10 *466:B *471:C 0
11 *467:C *467:B 0
12 *471:D *471:C 1.54008e-05
13 *472:B *467:B 1.54008e-05
14 *3:16 *68:10 0
15 *3:16 *68:25 0
16 *27:8 *68:10 0
17 *29:12 *465:A 8.0216e-05
18 *29:12 *68:25 0.00066014
19 *48:34 *471:C 0.000112519
20 *48:42 *471:C 7.51285e-05
21 *48:59 *471:C 3.23417e-05
22 *67:23 *467:B 0
23 *67:23 *471:C 0.000181192
24 *67:23 *68:10 0
25 *67:23 *68:25 0.000872586
26 *67:34 *471:C 0
*RES
1 *520:X *68:10 42.2763 
2 *68:10 *467:B 41.133 
3 *68:10 *68:25 4.3775 
4 *68:25 *471:C 43.3269 
5 *68:25 *465:A 40.7519 
*END

*D_NET *69 0.00631034
*CONN
*I *482:C I *D sg13cmos5l_nand4_1
*I *472:A I *D sg13cmos5l_xor2_1
*I *521:X O *D sg13cmos5l_dlygate4sd3_1
*CAP
1 *482:C 0.000547976
2 *472:A 0
3 *521:X 0
4 *69:12 0.000833263
5 *69:6 0.00138124
6 *482:C *478:B 0
7 *482:C *478:A 0.000234311
8 *482:C *482:D 0.000336949
9 *482:C *76:21 0.00032264
10 *482:C *76:43 0.000609161
11 *482:C *77:12 0
12 *69:12 *471:B 0.000826125
13 *69:12 *75:8 0.000608441
14 *69:12 *76:21 0.000397229
15 *467:C *69:12 4.77425e-05
16 *468:A *69:12 0
17 *472:B *69:12 0
18 *482:B *482:C 3.75762e-05
19 *493:RESET_B *69:12 0
20 *493:D *69:12 0
21 *497:CLK *482:C 0
22 *497:CLK *69:12 0
23 *501:D *482:C 0
24 *517:A *482:C 0
25 *27:8 *69:12 0
26 *37:10 *482:C 1.54008e-05
27 *44:11 *482:C 0
28 *67:23 *69:12 0.000112289
29 *68:10 *69:12 0
*RES
1 *521:X *69:6 40 
2 *69:6 *69:12 30.1867 
3 *69:12 *472:A 20 
4 *69:6 *482:C 47.2409 
*END

*D_NET *70 0.00513156
*CONN
*I *529:A I *D sg13cmos5l_buf_1
*I *519:A I *D sg13cmos5l_dlygate4sd3_1
*I *491:Q O *D sg13cmos5l_dfrbpq_1
*CAP
1 *529:A 0
2 *519:A 0
3 *491:Q 0.000201067
4 *70:23 0.00123961
5 *70:12 0.00181519
6 *70:8 0.000776649
7 *70:8 *74:10 0.000714505
8 *70:12 *75:12 0
9 *70:23 *75:12 0
10 *469:B *70:12 0
11 *470:B *70:12 0
12 *491:CLK *70:12 0.000144074
13 *493:CLK *70:12 3.238e-05
14 *495:RESET_B *70:12 0
15 *508:A *70:12 0
16 *22:90 *70:23 0
17 *27:8 *70:12 0
18 *27:8 *70:23 0
19 *30:10 *70:23 0
20 *45:18 *70:12 0.000208079
21 *48:59 *70:23 0
22 *59:25 *70:8 0
*RES
1 *491:Q *70:8 43.3166 
2 *70:8 *70:12 25.2942 
3 *70:12 *519:A 20 
4 *70:12 *70:23 32.7205 
5 *70:23 *529:A 40 
*END

*D_NET *71 0.000424274
*CONN
*I *473:B I *D sg13cmos5l_nor2_1
*I *522:X O *D sg13cmos5l_dlygate4sd3_1
*CAP
1 *473:B 0.000140133
2 *522:X 0.000140133
3 *473:B *531:A 0
4 *497:D *473:B 0.000144009
5 *22:90 *473:B 0
*RES
1 *522:X *473:B 41.4008 
*END

*D_NET *72 0.000895494
*CONN
*I *486:A I *D sg13cmos5l_and2_1
*I *487:A I *D sg13cmos5l_nor2b_1
*I *523:X O *D sg13cmos5l_dlygate4sd3_1
*CAP
1 *486:A 0.000125422
2 *487:A 0
3 *523:X 4.16693e-05
4 *72:8 0.000167091
5 *40:8 *486:A 0
6 *46:12 *486:A 0
7 *49:25 *486:A 0.000288172
8 *49:25 *72:8 0.000129163
9 *59:25 *72:8 0
10 *59:37 *486:A 0.000143977
*RES
1 *523:X *72:8 40.5974 
2 *72:8 *487:A 40 
3 *72:8 *486:A 41.8746 
*END

*D_NET *73 0.00104876
*CONN
*I *505:D I *D sg13cmos5l_dfrbpq_1
*I *524:X O *D sg13cmos5l_dlygate4sd3_1
*CAP
1 *505:D 0
2 *524:X 0.000194016
3 *73:8 0.000194016
4 *21:10 *73:8 0.000660729
*RES
1 *524:X *73:8 43.0694 
2 *73:8 *505:D 40 
*END

*D_NET *74 0.00206195
*CONN
*I *469:A I *D sg13cmos5l_xor2_1
*I *525:X O *D sg13cmos5l_dlygate4sd3_1
*CAP
1 *469:A 0.000131762
2 *525:X 0.00054196
3 *74:10 0.000673722
4 *74:10 *471:B 0
5 *74:10 *76:15 0
6 *469:B *469:A 0
7 *469:B *74:10 0
8 *470:B *469:A 0
9 *14:8 *74:10 0
10 *27:21 *74:10 0
11 *44:11 *74:10 0
12 *56:8 *74:10 0
13 *70:8 *74:10 0.000714505
*RES
1 *525:X *74:10 47.0967 
2 *74:10 *469:A 41.1845 
*END

*D_NET *75 0.00533058
*CONN
*I *520:A I *D sg13cmos5l_dlygate4sd3_1
*I *530:A I *D sg13cmos5l_buf_1
*I *493:Q O *D sg13cmos5l_dfrbpq_1
*CAP
1 *520:A 3.37968e-05
2 *530:A 0
3 *493:Q 0.000111093
4 *75:24 0.000782808
5 *75:12 0.00136269
6 *75:8 0.000657177
7 *75:12 *531:A 0
8 *493:CLK *75:12 4.77425e-05
9 *497:D *520:A 0
10 *497:D *75:12 0
11 *497:D *75:24 0
12 *497:CLK *75:8 5.31192e-05
13 *22:90 *75:24 1.54556e-05
14 *30:10 *75:24 0.000661385
15 *45:18 *75:12 4.78192e-05
16 *45:22 *75:8 0.000554907
17 *48:59 *75:24 0.000394151
18 *69:12 *75:8 0.000608441
19 *70:12 *75:12 0
20 *70:23 *75:12 0
*RES
1 *493:Q *75:8 42.8222 
2 *75:8 *75:12 24.429 
3 *75:12 *75:24 47.5499 
4 *75:24 *530:A 20 
5 *75:12 *520:A 20.3502 
*END

*D_NET *76 0.00917251
*CONN
*I *474:B I *D sg13cmos5l_nand2_1
*I *482:D I *D sg13cmos5l_nand4_1
*I *478:C I *D sg13cmos5l_nand3_1
*I *531:A I *D sg13cmos5l_buf_1
*I *471:B I *D sg13cmos5l_nand4_1
*I *525:A I *D sg13cmos5l_dlygate4sd3_1
*I *495:Q O *D sg13cmos5l_dfrbpq_1
*CAP
1 *474:B 2.83098e-05
2 *482:D 0.000194942
3 *478:C 0.000108916
4 *531:A 0.000744802
5 *471:B 0.000969401
6 *525:A 0
7 *495:Q 0.000196265
8 *76:43 0.000548997
9 *76:21 0.00198681
10 *76:19 0.000666642
11 *76:15 0.000360393
12 *76:8 0.000379449
13 *474:B *474:A 0
14 *478:C *478:B 4.77425e-05
15 *478:C *478:A 0
16 *76:19 *474:A 7.84876e-05
17 *469:B *471:B 0
18 *471:C *471:B 4.77425e-05
19 *471:D *471:B 0
20 *473:B *531:A 0
21 *476:C *76:8 0
22 *476:C *76:15 0
23 *482:C *482:D 0.000336949
24 *482:C *76:21 0.00032264
25 *482:C *76:43 0.000609161
26 *495:CLK *76:8 0
27 *495:CLK *76:15 0
28 *495:CLK *76:19 0
29 *497:RESET_B *531:A 0
30 *497:D *531:A 0
31 *497:CLK *531:A 0
32 *3:16 *478:C 0
33 *15:8 *471:B 0
34 *22:54 *76:8 0
35 *22:54 *76:15 0
36 *27:21 *471:B 0
37 *27:21 *76:21 0
38 *27:45 *478:C 0
39 *27:45 *482:D 0.000144583
40 *27:45 *76:43 0
41 *31:23 *76:15 0
42 *31:23 *76:19 0
43 *44:11 *482:D 0
44 *45:18 *531:A 0
45 *48:23 *471:B 0.000176925
46 *51:10 *531:A 0
47 *69:12 *471:B 0.000826125
48 *69:12 *76:21 0.000397229
49 *74:10 *471:B 0
50 *74:10 *76:15 0
51 *75:12 *531:A 0
*RES
1 *495:Q *76:8 22.2145 
2 *76:8 *525:A 20 
3 *76:8 *76:15 1.8334 
4 *76:15 *76:19 21.4008 
5 *76:19 *76:21 3.3166 
6 *76:21 *471:B 49.9395 
7 *76:21 *531:A 46.8083 
8 *76:19 *76:43 2.8222 
9 *76:43 *478:C 40.9682 
10 *76:43 *482:D 42.3072 
11 *76:15 *474:B 20.3502 
*END

*D_NET *77 0.00326473
*CONN
*I *532:A I *D sg13cmos5l_buf_1
*I *478:B I *D sg13cmos5l_nand3_1
*I *521:A I *D sg13cmos5l_dlygate4sd3_1
*I *474:A I *D sg13cmos5l_nand2_1
*I *497:Q O *D sg13cmos5l_dfrbpq_1
*CAP
1 *532:A 0.000390401
2 *478:B 0.000249275
3 *521:A 2.91112e-05
4 *474:A 0.000279368
5 *497:Q 0.000595285
6 *77:12 0.000495924
7 *77:8 0.000641604
8 *474:B *474:A 0
9 *478:C *478:B 4.77425e-05
10 *479:A1 *532:A 0
11 *481:A1 *532:A 0
12 *482:C *478:B 0
13 *482:C *77:12 0
14 *3:16 *77:8 0
15 *22:54 *474:A 7.44324e-05
16 *22:54 *532:A 4.76327e-05
17 *22:54 *77:8 1.54556e-05
18 *22:90 *532:A 0.00030564
19 *31:23 *474:A 1.43685e-05
20 *57:14 *532:A 0
21 *76:19 *474:A 7.84876e-05
*RES
1 *497:Q *77:8 41.6171 
2 *77:8 *77:12 21.339 
3 *77:12 *474:A 22.678 
4 *77:12 *521:A 20.3193 
5 *77:8 *478:B 41.9055 
6 *497:Q *532:A 44.1612 
*END

*D_NET *78 0.00416467
*CONN
*I *533:A I *D sg13cmos5l_buf_1
*I *478:A I *D sg13cmos5l_nand3_1
*I *516:A I *D sg13cmos5l_dlygate4sd3_1
*I *499:Q O *D sg13cmos5l_dfrbpq_1
*CAP
1 *533:A 0.000784592
2 *478:A 0.000365097
3 *516:A 0
4 *499:Q 0.000253525
5 *78:17 0.00150308
6 *78:8 0.000606917
7 *533:A *534:A 0
8 *533:A *79:14 0
9 *533:A *80:10 0.000208271
10 *478:C *478:A 0
11 *482:B *78:17 0
12 *482:C *478:A 0.000234311
13 *488:A *78:17 0
14 *489:A *78:17 0
15 *489:B *533:A 0
16 *501:RESET_B *533:A 0
17 *512:A *533:A 0
18 *517:A *78:17 0
19 *27:45 *478:A 8.0216e-05
20 *37:10 *478:A 0
21 *37:10 *533:A 0
22 *44:11 *478:A 0
23 *46:38 *533:A 0.000128662
24 *49:10 *78:8 0
25 *49:10 *78:17 0
26 *57:10 *533:A 0
27 *64:8 *78:17 0
*RES
1 *499:Q *78:8 22.7089 
2 *78:8 *516:A 20 
3 *78:8 *78:17 23.5638 
4 *78:17 *478:A 43.8522 
5 *78:17 *533:A 47.7147 
*END

*D_NET *79 0.00160385
*CONN
*I *534:A I *D sg13cmos5l_buf_1
*I *510:A I *D sg13cmos5l_dlygate4sd3_1
*I *501:Q O *D sg13cmos5l_dfrbpq_1
*CAP
1 *534:A 0.000369082
2 *510:A 0
3 *501:Q 0.000328536
4 *79:14 0.000697618
5 *534:A *535:A 0
6 *79:14 *535:A 0
7 count_o[5] *534:A 0
8 *485:A2 *79:14 0
9 *485:B1 *79:14 0.000208615
10 *533:A *534:A 0
11 *533:A *79:14 0
12 *20:10 *534:A 0
*RES
1 *501:Q *79:14 23.9449 
2 *79:14 *510:A 20 
3 *79:14 *534:A 24.1303 
*END

*D_NET *80 0.003267
*CONN
*I *535:A I *D sg13cmos5l_buf_1
*I *513:A I *D sg13cmos5l_dlygate4sd3_1
*I *503:Q O *D sg13cmos5l_dfrbpq_1
*CAP
1 *535:A 0.000453536
2 *513:A 0
3 *503:Q 0.000284444
4 *80:12 0.000453536
5 *80:10 0.000284444
6 *484:A *535:A 0.000339004
7 *485:A2 *535:A 8.00842e-05
8 *485:B1 *535:A 0
9 *488:A *80:10 0.000501875
10 *489:B *80:10 0
11 *533:A *80:10 0.000208271
12 *534:A *535:A 0
13 *20:10 *535:A 0
14 *27:71 *80:10 0.000448842
15 *27:82 *80:10 0.000212958
16 *62:12 *535:A 0
17 *79:14 *535:A 0
*RES
1 *503:Q *80:10 44.4702 
2 *80:10 *80:12 20 
3 *80:12 *513:A 20 
4 *80:12 *535:A 24.6253 
*END
