*SPEF "ieee 1481-1999"
*DESIGN "heichips26_digital_project"
*DATE "10:55:05 Tuesday August 04, 2026"
*VENDOR "The OpenROAD Project"
*PROGRAM "OpenROAD"
*VERSION "dcf36133a369abc8f3c5e5738cd4d82e4903c0e0"
*DESIGN_FLOW "NAME_SCOPE LOCAL" "PIN_CAP NONE"
*DIVIDER /
*DELIMITER :
*BUS_DELIMITER []
*T_UNIT 1 NS
*C_UNIT 1 PF
*R_UNIT 1 OHM
*L_UNIT 1 HENRY

*NAME_MAP
*3 clk
*4 ena
*5 rst_n
*6 ui_in[0]
*7 ui_in[1]
*8 ui_in[2]
*9 ui_in[3]
*10 ui_in[4]
*11 ui_in[5]
*12 ui_in[6]
*13 ui_in[7]
*14 uio_in[0]
*15 uio_in[1]
*16 uio_in[2]
*17 uio_in[3]
*18 uio_in[4]
*19 uio_in[5]
*20 uio_in[6]
*21 uio_in[7]
*22 net
*23 net19
*24 net20
*25 net21
*26 net22
*27 net23
*28 net24
*29 net25
*30 uio_out[0]
*31 uio_out[1]
*32 uio_out[2]
*33 uio_out[3]
*34 uio_out[4]
*35 uio_out[5]
*36 uio_out[6]
*37 uio_out[7]
*38 uo_out[0]
*39 uo_out[1]
*40 uo_out[2]
*41 uo_out[3]
*42 uo_out[4]
*43 uo_out[5]
*44 uo_out[6]
*45 uo_out[7]
*46 net1
*47 net10
*48 net11
*49 net12
*50 net13
*51 net14
*52 net15
*53 net16
*54 net17
*55 net18
*56 net2
*57 net3
*58 net4
*59 net5
*60 net6
*61 net7
*62 net8
*63 net9
*64 FILLER_0_0
*65 FILLER_0_1001
*66 FILLER_0_1008
*67 FILLER_0_1015
*68 FILLER_0_1022
*69 FILLER_0_105
*70 FILLER_0_112
*71 FILLER_0_119
*72 FILLER_0_126
*73 FILLER_0_133
*74 FILLER_0_14
*75 FILLER_0_140
*76 FILLER_0_147
*77 FILLER_0_154
*78 FILLER_0_161
*79 FILLER_0_168
*80 FILLER_0_175
*81 FILLER_0_182
*82 FILLER_0_189
*83 FILLER_0_196
*84 FILLER_0_203
*85 FILLER_0_21
*86 FILLER_0_210
*87 FILLER_0_217
*88 FILLER_0_224
*89 FILLER_0_231
*90 FILLER_0_238
*91 FILLER_0_245
*92 FILLER_0_252
*93 FILLER_0_259
*94 FILLER_0_266
*95 FILLER_0_273
*96 FILLER_0_28
*97 FILLER_0_280
*98 FILLER_0_287
*99 FILLER_0_294
*100 FILLER_0_301
*101 FILLER_0_308
*102 FILLER_0_315
*103 FILLER_0_322
*104 FILLER_0_329
*105 FILLER_0_336
*106 FILLER_0_343
*107 FILLER_0_35
*108 FILLER_0_350
*109 FILLER_0_357
*110 FILLER_0_364
*111 FILLER_0_371
*112 FILLER_0_378
*113 FILLER_0_385
*114 FILLER_0_392
*115 FILLER_0_399
*116 FILLER_0_406
*117 FILLER_0_413
*118 FILLER_0_42
*119 FILLER_0_420
*120 FILLER_0_427
*121 FILLER_0_434
*122 FILLER_0_441
*123 FILLER_0_448
*124 FILLER_0_455
*125 FILLER_0_462
*126 FILLER_0_469
*127 FILLER_0_476
*128 FILLER_0_483
*129 FILLER_0_49
*130 FILLER_0_490
*131 FILLER_0_497
*132 FILLER_0_504
*133 FILLER_0_511
*134 FILLER_0_518
*135 FILLER_0_525
*136 FILLER_0_532
*137 FILLER_0_539
*138 FILLER_0_546
*139 FILLER_0_553
*140 FILLER_0_56
*141 FILLER_0_560
*142 FILLER_0_567
*143 FILLER_0_574
*144 FILLER_0_581
*145 FILLER_0_588
*146 FILLER_0_595
*147 FILLER_0_602
*148 FILLER_0_609
*149 FILLER_0_616
*150 FILLER_0_623
*151 FILLER_0_63
*152 FILLER_0_630
*153 FILLER_0_637
*154 FILLER_0_644
*155 FILLER_0_651
*156 FILLER_0_658
*157 FILLER_0_665
*158 FILLER_0_672
*159 FILLER_0_679
*160 FILLER_0_686
*161 FILLER_0_693
*162 FILLER_0_7
*163 FILLER_0_70
*164 FILLER_0_700
*165 FILLER_0_707
*166 FILLER_0_714
*167 FILLER_0_721
*168 FILLER_0_728
*169 FILLER_0_735
*170 FILLER_0_742
*171 FILLER_0_749
*172 FILLER_0_756
*173 FILLER_0_763
*174 FILLER_0_77
*175 FILLER_0_770
*176 FILLER_0_777
*177 FILLER_0_784
*178 FILLER_0_791
*179 FILLER_0_798
*180 FILLER_0_805
*181 FILLER_0_812
*182 FILLER_0_819
*183 FILLER_0_826
*184 FILLER_0_833
*185 FILLER_0_84
*186 FILLER_0_840
*187 FILLER_0_847
*188 FILLER_0_854
*189 FILLER_0_861
*190 FILLER_0_868
*191 FILLER_0_875
*192 FILLER_0_882
*193 FILLER_0_889
*194 FILLER_0_896
*195 FILLER_0_903
*196 FILLER_0_91
*197 FILLER_0_910
*198 FILLER_0_917
*199 FILLER_0_924
*200 FILLER_0_931
*201 FILLER_0_938
*202 FILLER_0_945
*203 FILLER_0_952
*204 FILLER_0_959
*205 FILLER_0_966
*206 FILLER_0_973
*207 FILLER_0_98
*208 FILLER_0_980
*209 FILLER_0_987
*210 FILLER_0_994
*211 FILLER_10_1006
*212 FILLER_10_1013
*213 FILLER_10_1020
*214 FILLER_10_1027
*215 FILLER_10_104
*216 FILLER_10_111
*217 FILLER_10_118
*218 FILLER_10_125
*219 FILLER_10_13
*220 FILLER_10_132
*221 FILLER_10_139
*222 FILLER_10_146
*223 FILLER_10_153
*224 FILLER_10_160
*225 FILLER_10_167
*226 FILLER_10_174
*227 FILLER_10_20
*228 FILLER_10_27
*229 FILLER_10_34
*230 FILLER_10_390
*231 FILLER_10_397
*232 FILLER_10_4
*233 FILLER_10_404
*234 FILLER_10_41
*235 FILLER_10_411
*236 FILLER_10_418
*237 FILLER_10_425
*238 FILLER_10_432
*239 FILLER_10_439
*240 FILLER_10_446
*241 FILLER_10_453
*242 FILLER_10_460
*243 FILLER_10_467
*244 FILLER_10_474
*245 FILLER_10_48
*246 FILLER_10_481
*247 FILLER_10_488
*248 FILLER_10_495
*249 FILLER_10_502
*250 FILLER_10_509
*251 FILLER_10_516
*252 FILLER_10_523
*253 FILLER_10_530
*254 FILLER_10_537
*255 FILLER_10_544
*256 FILLER_10_55
*257 FILLER_10_551
*258 FILLER_10_558
*259 FILLER_10_565
*260 FILLER_10_572
*261 FILLER_10_579
*262 FILLER_10_586
*263 FILLER_10_593
*264 FILLER_10_600
*265 FILLER_10_607
*266 FILLER_10_614
*267 FILLER_10_62
*268 FILLER_10_621
*269 FILLER_10_628
*270 FILLER_10_635
*271 FILLER_10_642
*272 FILLER_10_649
*273 FILLER_10_656
*274 FILLER_10_663
*275 FILLER_10_670
*276 FILLER_10_677
*277 FILLER_10_684
*278 FILLER_10_69
*279 FILLER_10_691
*280 FILLER_10_698
*281 FILLER_10_705
*282 FILLER_10_712
*283 FILLER_10_719
*284 FILLER_10_726
*285 FILLER_10_733
*286 FILLER_10_740
*287 FILLER_10_747
*288 FILLER_10_754
*289 FILLER_10_76
*290 FILLER_10_761
*291 FILLER_10_768
*292 FILLER_10_775
*293 FILLER_10_782
*294 FILLER_10_789
*295 FILLER_10_796
*296 FILLER_10_8
*297 FILLER_10_803
*298 FILLER_10_810
*299 FILLER_10_817
*300 FILLER_10_824
*301 FILLER_10_83
*302 FILLER_10_831
*303 FILLER_10_838
*304 FILLER_10_845
*305 FILLER_10_852
*306 FILLER_10_859
*307 FILLER_10_866
*308 FILLER_10_873
*309 FILLER_10_880
*310 FILLER_10_887
*311 FILLER_10_894
*312 FILLER_10_90
*313 FILLER_10_901
*314 FILLER_10_908
*315 FILLER_10_915
*316 FILLER_10_922
*317 FILLER_10_929
*318 FILLER_10_936
*319 FILLER_10_943
*320 FILLER_10_950
*321 FILLER_10_957
*322 FILLER_10_964
*323 FILLER_10_97
*324 FILLER_10_971
*325 FILLER_10_978
*326 FILLER_10_985
*327 FILLER_10_992
*328 FILLER_10_999
*329 FILLER_11_1006
*330 FILLER_11_1013
*331 FILLER_11_1020
*332 FILLER_11_1027
*333 FILLER_11_104
*334 FILLER_11_111
*335 FILLER_11_118
*336 FILLER_11_125
*337 FILLER_11_13
*338 FILLER_11_132
*339 FILLER_11_139
*340 FILLER_11_146
*341 FILLER_11_153
*342 FILLER_11_160
*343 FILLER_11_167
*344 FILLER_11_174
*345 FILLER_11_20
*346 FILLER_11_27
*347 FILLER_11_34
*348 FILLER_11_390
*349 FILLER_11_397
*350 FILLER_11_4
*351 FILLER_11_404
*352 FILLER_11_41
*353 FILLER_11_411
*354 FILLER_11_418
*355 FILLER_11_425
*356 FILLER_11_432
*357 FILLER_11_439
*358 FILLER_11_446
*359 FILLER_11_453
*360 FILLER_11_460
*361 FILLER_11_467
*362 FILLER_11_474
*363 FILLER_11_48
*364 FILLER_11_481
*365 FILLER_11_488
*366 FILLER_11_495
*367 FILLER_11_502
*368 FILLER_11_509
*369 FILLER_11_516
*370 FILLER_11_523
*371 FILLER_11_530
*372 FILLER_11_537
*373 FILLER_11_544
*374 FILLER_11_55
*375 FILLER_11_551
*376 FILLER_11_558
*377 FILLER_11_565
*378 FILLER_11_572
*379 FILLER_11_579
*380 FILLER_11_586
*381 FILLER_11_593
*382 FILLER_11_600
*383 FILLER_11_607
*384 FILLER_11_614
*385 FILLER_11_62
*386 FILLER_11_621
*387 FILLER_11_628
*388 FILLER_11_635
*389 FILLER_11_642
*390 FILLER_11_649
*391 FILLER_11_656
*392 FILLER_11_663
*393 FILLER_11_670
*394 FILLER_11_677
*395 FILLER_11_684
*396 FILLER_11_69
*397 FILLER_11_691
*398 FILLER_11_698
*399 FILLER_11_705
*400 FILLER_11_712
*401 FILLER_11_719
*402 FILLER_11_726
*403 FILLER_11_733
*404 FILLER_11_740
*405 FILLER_11_747
*406 FILLER_11_754
*407 FILLER_11_76
*408 FILLER_11_761
*409 FILLER_11_768
*410 FILLER_11_775
*411 FILLER_11_782
*412 FILLER_11_789
*413 FILLER_11_796
*414 FILLER_11_8
*415 FILLER_11_803
*416 FILLER_11_810
*417 FILLER_11_817
*418 FILLER_11_824
*419 FILLER_11_83
*420 FILLER_11_831
*421 FILLER_11_838
*422 FILLER_11_845
*423 FILLER_11_852
*424 FILLER_11_859
*425 FILLER_11_866
*426 FILLER_11_873
*427 FILLER_11_880
*428 FILLER_11_887
*429 FILLER_11_894
*430 FILLER_11_90
*431 FILLER_11_901
*432 FILLER_11_908
*433 FILLER_11_915
*434 FILLER_11_922
*435 FILLER_11_929
*436 FILLER_11_936
*437 FILLER_11_943
*438 FILLER_11_950
*439 FILLER_11_957
*440 FILLER_11_964
*441 FILLER_11_97
*442 FILLER_11_971
*443 FILLER_11_978
*444 FILLER_11_985
*445 FILLER_11_992
*446 FILLER_11_999
*447 FILLER_12_1006
*448 FILLER_12_1013
*449 FILLER_12_1020
*450 FILLER_12_1027
*451 FILLER_12_104
*452 FILLER_12_111
*453 FILLER_12_118
*454 FILLER_12_125
*455 FILLER_12_13
*456 FILLER_12_132
*457 FILLER_12_139
*458 FILLER_12_146
*459 FILLER_12_153
*460 FILLER_12_160
*461 FILLER_12_167
*462 FILLER_12_174
*463 FILLER_12_20
*464 FILLER_12_27
*465 FILLER_12_34
*466 FILLER_12_390
*467 FILLER_12_397
*468 FILLER_12_4
*469 FILLER_12_404
*470 FILLER_12_41
*471 FILLER_12_411
*472 FILLER_12_418
*473 FILLER_12_425
*474 FILLER_12_432
*475 FILLER_12_439
*476 FILLER_12_446
*477 FILLER_12_453
*478 FILLER_12_460
*479 FILLER_12_467
*480 FILLER_12_474
*481 FILLER_12_48
*482 FILLER_12_481
*483 FILLER_12_488
*484 FILLER_12_495
*485 FILLER_12_502
*486 FILLER_12_509
*487 FILLER_12_516
*488 FILLER_12_523
*489 FILLER_12_530
*490 FILLER_12_537
*491 FILLER_12_544
*492 FILLER_12_55
*493 FILLER_12_551
*494 FILLER_12_558
*495 FILLER_12_565
*496 FILLER_12_572
*497 FILLER_12_579
*498 FILLER_12_586
*499 FILLER_12_593
*500 FILLER_12_600
*501 FILLER_12_607
*502 FILLER_12_614
*503 FILLER_12_62
*504 FILLER_12_621
*505 FILLER_12_628
*506 FILLER_12_635
*507 FILLER_12_642
*508 FILLER_12_649
*509 FILLER_12_656
*510 FILLER_12_663
*511 FILLER_12_670
*512 FILLER_12_677
*513 FILLER_12_684
*514 FILLER_12_69
*515 FILLER_12_691
*516 FILLER_12_698
*517 FILLER_12_705
*518 FILLER_12_712
*519 FILLER_12_719
*520 FILLER_12_726
*521 FILLER_12_733
*522 FILLER_12_740
*523 FILLER_12_747
*524 FILLER_12_754
*525 FILLER_12_76
*526 FILLER_12_761
*527 FILLER_12_768
*528 FILLER_12_775
*529 FILLER_12_782
*530 FILLER_12_789
*531 FILLER_12_796
*532 FILLER_12_8
*533 FILLER_12_803
*534 FILLER_12_810
*535 FILLER_12_817
*536 FILLER_12_824
*537 FILLER_12_83
*538 FILLER_12_831
*539 FILLER_12_838
*540 FILLER_12_845
*541 FILLER_12_852
*542 FILLER_12_859
*543 FILLER_12_866
*544 FILLER_12_873
*545 FILLER_12_880
*546 FILLER_12_887
*547 FILLER_12_894
*548 FILLER_12_90
*549 FILLER_12_901
*550 FILLER_12_908
*551 FILLER_12_915
*552 FILLER_12_922
*553 FILLER_12_929
*554 FILLER_12_936
*555 FILLER_12_943
*556 FILLER_12_950
*557 FILLER_12_957
*558 FILLER_12_964
*559 FILLER_12_97
*560 FILLER_12_971
*561 FILLER_12_978
*562 FILLER_12_985
*563 FILLER_12_992
*564 FILLER_12_999
*565 FILLER_13_1006
*566 FILLER_13_1013
*567 FILLER_13_1020
*568 FILLER_13_1027
*569 FILLER_13_104
*570 FILLER_13_111
*571 FILLER_13_118
*572 FILLER_13_125
*573 FILLER_13_13
*574 FILLER_13_132
*575 FILLER_13_139
*576 FILLER_13_146
*577 FILLER_13_153
*578 FILLER_13_160
*579 FILLER_13_167
*580 FILLER_13_174
*581 FILLER_13_20
*582 FILLER_13_27
*583 FILLER_13_34
*584 FILLER_13_390
*585 FILLER_13_397
*586 FILLER_13_4
*587 FILLER_13_404
*588 FILLER_13_41
*589 FILLER_13_411
*590 FILLER_13_418
*591 FILLER_13_425
*592 FILLER_13_432
*593 FILLER_13_439
*594 FILLER_13_446
*595 FILLER_13_453
*596 FILLER_13_460
*597 FILLER_13_467
*598 FILLER_13_474
*599 FILLER_13_48
*600 FILLER_13_481
*601 FILLER_13_488
*602 FILLER_13_495
*603 FILLER_13_502
*604 FILLER_13_509
*605 FILLER_13_516
*606 FILLER_13_523
*607 FILLER_13_530
*608 FILLER_13_537
*609 FILLER_13_544
*610 FILLER_13_55
*611 FILLER_13_551
*612 FILLER_13_558
*613 FILLER_13_565
*614 FILLER_13_572
*615 FILLER_13_579
*616 FILLER_13_586
*617 FILLER_13_593
*618 FILLER_13_600
*619 FILLER_13_607
*620 FILLER_13_614
*621 FILLER_13_62
*622 FILLER_13_621
*623 FILLER_13_628
*624 FILLER_13_635
*625 FILLER_13_642
*626 FILLER_13_649
*627 FILLER_13_656
*628 FILLER_13_663
*629 FILLER_13_670
*630 FILLER_13_677
*631 FILLER_13_684
*632 FILLER_13_69
*633 FILLER_13_691
*634 FILLER_13_698
*635 FILLER_13_705
*636 FILLER_13_712
*637 FILLER_13_719
*638 FILLER_13_726
*639 FILLER_13_733
*640 FILLER_13_740
*641 FILLER_13_747
*642 FILLER_13_754
*643 FILLER_13_76
*644 FILLER_13_761
*645 FILLER_13_768
*646 FILLER_13_775
*647 FILLER_13_782
*648 FILLER_13_789
*649 FILLER_13_796
*650 FILLER_13_8
*651 FILLER_13_803
*652 FILLER_13_810
*653 FILLER_13_817
*654 FILLER_13_824
*655 FILLER_13_83
*656 FILLER_13_831
*657 FILLER_13_838
*658 FILLER_13_845
*659 FILLER_13_852
*660 FILLER_13_859
*661 FILLER_13_866
*662 FILLER_13_873
*663 FILLER_13_880
*664 FILLER_13_887
*665 FILLER_13_894
*666 FILLER_13_90
*667 FILLER_13_901
*668 FILLER_13_908
*669 FILLER_13_915
*670 FILLER_13_922
*671 FILLER_13_929
*672 FILLER_13_936
*673 FILLER_13_943
*674 FILLER_13_950
*675 FILLER_13_957
*676 FILLER_13_964
*677 FILLER_13_97
*678 FILLER_13_971
*679 FILLER_13_978
*680 FILLER_13_985
*681 FILLER_13_992
*682 FILLER_13_999
*683 FILLER_14_1006
*684 FILLER_14_1013
*685 FILLER_14_1020
*686 FILLER_14_1027
*687 FILLER_14_104
*688 FILLER_14_111
*689 FILLER_14_118
*690 FILLER_14_125
*691 FILLER_14_13
*692 FILLER_14_132
*693 FILLER_14_139
*694 FILLER_14_146
*695 FILLER_14_153
*696 FILLER_14_160
*697 FILLER_14_167
*698 FILLER_14_174
*699 FILLER_14_20
*700 FILLER_14_27
*701 FILLER_14_34
*702 FILLER_14_390
*703 FILLER_14_397
*704 FILLER_14_4
*705 FILLER_14_404
*706 FILLER_14_41
*707 FILLER_14_411
*708 FILLER_14_418
*709 FILLER_14_425
*710 FILLER_14_432
*711 FILLER_14_439
*712 FILLER_14_446
*713 FILLER_14_453
*714 FILLER_14_460
*715 FILLER_14_467
*716 FILLER_14_474
*717 FILLER_14_48
*718 FILLER_14_481
*719 FILLER_14_488
*720 FILLER_14_495
*721 FILLER_14_502
*722 FILLER_14_509
*723 FILLER_14_516
*724 FILLER_14_523
*725 FILLER_14_530
*726 FILLER_14_537
*727 FILLER_14_544
*728 FILLER_14_55
*729 FILLER_14_551
*730 FILLER_14_558
*731 FILLER_14_565
*732 FILLER_14_572
*733 FILLER_14_579
*734 FILLER_14_586
*735 FILLER_14_593
*736 FILLER_14_600
*737 FILLER_14_607
*738 FILLER_14_614
*739 FILLER_14_62
*740 FILLER_14_621
*741 FILLER_14_628
*742 FILLER_14_635
*743 FILLER_14_642
*744 FILLER_14_649
*745 FILLER_14_656
*746 FILLER_14_663
*747 FILLER_14_670
*748 FILLER_14_677
*749 FILLER_14_684
*750 FILLER_14_69
*751 FILLER_14_691
*752 FILLER_14_698
*753 FILLER_14_705
*754 FILLER_14_712
*755 FILLER_14_719
*756 FILLER_14_726
*757 FILLER_14_733
*758 FILLER_14_740
*759 FILLER_14_747
*760 FILLER_14_754
*761 FILLER_14_76
*762 FILLER_14_761
*763 FILLER_14_768
*764 FILLER_14_775
*765 FILLER_14_782
*766 FILLER_14_789
*767 FILLER_14_796
*768 FILLER_14_8
*769 FILLER_14_803
*770 FILLER_14_810
*771 FILLER_14_817
*772 FILLER_14_824
*773 FILLER_14_83
*774 FILLER_14_831
*775 FILLER_14_838
*776 FILLER_14_845
*777 FILLER_14_852
*778 FILLER_14_859
*779 FILLER_14_866
*780 FILLER_14_873
*781 FILLER_14_880
*782 FILLER_14_887
*783 FILLER_14_894
*784 FILLER_14_90
*785 FILLER_14_901
*786 FILLER_14_908
*787 FILLER_14_915
*788 FILLER_14_922
*789 FILLER_14_929
*790 FILLER_14_936
*791 FILLER_14_943
*792 FILLER_14_950
*793 FILLER_14_957
*794 FILLER_14_964
*795 FILLER_14_97
*796 FILLER_14_971
*797 FILLER_14_978
*798 FILLER_14_985
*799 FILLER_14_992
*800 FILLER_14_999
*801 FILLER_15_1006
*802 FILLER_15_1013
*803 FILLER_15_1020
*804 FILLER_15_1027
*805 FILLER_15_104
*806 FILLER_15_111
*807 FILLER_15_118
*808 FILLER_15_125
*809 FILLER_15_13
*810 FILLER_15_132
*811 FILLER_15_139
*812 FILLER_15_146
*813 FILLER_15_153
*814 FILLER_15_160
*815 FILLER_15_167
*816 FILLER_15_174
*817 FILLER_15_20
*818 FILLER_15_27
*819 FILLER_15_34
*820 FILLER_15_390
*821 FILLER_15_397
*822 FILLER_15_4
*823 FILLER_15_404
*824 FILLER_15_41
*825 FILLER_15_411
*826 FILLER_15_418
*827 FILLER_15_425
*828 FILLER_15_432
*829 FILLER_15_439
*830 FILLER_15_446
*831 FILLER_15_453
*832 FILLER_15_460
*833 FILLER_15_467
*834 FILLER_15_474
*835 FILLER_15_48
*836 FILLER_15_481
*837 FILLER_15_488
*838 FILLER_15_495
*839 FILLER_15_502
*840 FILLER_15_509
*841 FILLER_15_516
*842 FILLER_15_523
*843 FILLER_15_530
*844 FILLER_15_537
*845 FILLER_15_544
*846 FILLER_15_55
*847 FILLER_15_551
*848 FILLER_15_558
*849 FILLER_15_565
*850 FILLER_15_572
*851 FILLER_15_579
*852 FILLER_15_586
*853 FILLER_15_593
*854 FILLER_15_600
*855 FILLER_15_607
*856 FILLER_15_614
*857 FILLER_15_62
*858 FILLER_15_621
*859 FILLER_15_628
*860 FILLER_15_635
*861 FILLER_15_642
*862 FILLER_15_649
*863 FILLER_15_656
*864 FILLER_15_663
*865 FILLER_15_670
*866 FILLER_15_677
*867 FILLER_15_684
*868 FILLER_15_69
*869 FILLER_15_691
*870 FILLER_15_698
*871 FILLER_15_705
*872 FILLER_15_712
*873 FILLER_15_719
*874 FILLER_15_726
*875 FILLER_15_733
*876 FILLER_15_740
*877 FILLER_15_747
*878 FILLER_15_754
*879 FILLER_15_76
*880 FILLER_15_761
*881 FILLER_15_768
*882 FILLER_15_775
*883 FILLER_15_782
*884 FILLER_15_789
*885 FILLER_15_796
*886 FILLER_15_8
*887 FILLER_15_803
*888 FILLER_15_810
*889 FILLER_15_817
*890 FILLER_15_824
*891 FILLER_15_83
*892 FILLER_15_831
*893 FILLER_15_838
*894 FILLER_15_845
*895 FILLER_15_852
*896 FILLER_15_859
*897 FILLER_15_866
*898 FILLER_15_873
*899 FILLER_15_880
*900 FILLER_15_887
*901 FILLER_15_894
*902 FILLER_15_90
*903 FILLER_15_901
*904 FILLER_15_908
*905 FILLER_15_915
*906 FILLER_15_922
*907 FILLER_15_929
*908 FILLER_15_936
*909 FILLER_15_943
*910 FILLER_15_950
*911 FILLER_15_957
*912 FILLER_15_964
*913 FILLER_15_97
*914 FILLER_15_971
*915 FILLER_15_978
*916 FILLER_15_985
*917 FILLER_15_992
*918 FILLER_15_999
*919 FILLER_16_1006
*920 FILLER_16_1013
*921 FILLER_16_1020
*922 FILLER_16_1027
*923 FILLER_16_104
*924 FILLER_16_111
*925 FILLER_16_118
*926 FILLER_16_125
*927 FILLER_16_13
*928 FILLER_16_132
*929 FILLER_16_139
*930 FILLER_16_146
*931 FILLER_16_153
*932 FILLER_16_160
*933 FILLER_16_167
*934 FILLER_16_174
*935 FILLER_16_20
*936 FILLER_16_27
*937 FILLER_16_34
*938 FILLER_16_390
*939 FILLER_16_397
*940 FILLER_16_4
*941 FILLER_16_404
*942 FILLER_16_41
*943 FILLER_16_411
*944 FILLER_16_418
*945 FILLER_16_425
*946 FILLER_16_432
*947 FILLER_16_439
*948 FILLER_16_446
*949 FILLER_16_453
*950 FILLER_16_460
*951 FILLER_16_467
*952 FILLER_16_474
*953 FILLER_16_48
*954 FILLER_16_481
*955 FILLER_16_488
*956 FILLER_16_495
*957 FILLER_16_502
*958 FILLER_16_509
*959 FILLER_16_516
*960 FILLER_16_523
*961 FILLER_16_530
*962 FILLER_16_537
*963 FILLER_16_544
*964 FILLER_16_55
*965 FILLER_16_551
*966 FILLER_16_558
*967 FILLER_16_565
*968 FILLER_16_572
*969 FILLER_16_579
*970 FILLER_16_586
*971 FILLER_16_593
*972 FILLER_16_600
*973 FILLER_16_607
*974 FILLER_16_614
*975 FILLER_16_62
*976 FILLER_16_621
*977 FILLER_16_628
*978 FILLER_16_635
*979 FILLER_16_642
*980 FILLER_16_649
*981 FILLER_16_656
*982 FILLER_16_663
*983 FILLER_16_670
*984 FILLER_16_677
*985 FILLER_16_684
*986 FILLER_16_69
*987 FILLER_16_691
*988 FILLER_16_698
*989 FILLER_16_705
*990 FILLER_16_712
*991 FILLER_16_719
*992 FILLER_16_726
*993 FILLER_16_733
*994 FILLER_16_740
*995 FILLER_16_747
*996 FILLER_16_754
*997 FILLER_16_76
*998 FILLER_16_761
*999 FILLER_16_768
*1000 FILLER_16_775
*1001 FILLER_16_782
*1002 FILLER_16_789
*1003 FILLER_16_796
*1004 FILLER_16_8
*1005 FILLER_16_803
*1006 FILLER_16_810
*1007 FILLER_16_817
*1008 FILLER_16_824
*1009 FILLER_16_83
*1010 FILLER_16_831
*1011 FILLER_16_838
*1012 FILLER_16_845
*1013 FILLER_16_852
*1014 FILLER_16_859
*1015 FILLER_16_866
*1016 FILLER_16_873
*1017 FILLER_16_880
*1018 FILLER_16_887
*1019 FILLER_16_894
*1020 FILLER_16_90
*1021 FILLER_16_901
*1022 FILLER_16_908
*1023 FILLER_16_915
*1024 FILLER_16_922
*1025 FILLER_16_929
*1026 FILLER_16_936
*1027 FILLER_16_943
*1028 FILLER_16_950
*1029 FILLER_16_957
*1030 FILLER_16_964
*1031 FILLER_16_97
*1032 FILLER_16_971
*1033 FILLER_16_978
*1034 FILLER_16_985
*1035 FILLER_16_992
*1036 FILLER_16_999
*1037 FILLER_17_0
*1038 FILLER_17_1006
*1039 FILLER_17_1013
*1040 FILLER_17_1020
*1041 FILLER_17_1027
*1042 FILLER_17_104
*1043 FILLER_17_111
*1044 FILLER_17_118
*1045 FILLER_17_125
*1046 FILLER_17_13
*1047 FILLER_17_132
*1048 FILLER_17_139
*1049 FILLER_17_146
*1050 FILLER_17_153
*1051 FILLER_17_160
*1052 FILLER_17_167
*1053 FILLER_17_174
*1054 FILLER_17_20
*1055 FILLER_17_27
*1056 FILLER_17_34
*1057 FILLER_17_390
*1058 FILLER_17_397
*1059 FILLER_17_404
*1060 FILLER_17_41
*1061 FILLER_17_411
*1062 FILLER_17_418
*1063 FILLER_17_425
*1064 FILLER_17_432
*1065 FILLER_17_439
*1066 FILLER_17_446
*1067 FILLER_17_453
*1068 FILLER_17_460
*1069 FILLER_17_467
*1070 FILLER_17_474
*1071 FILLER_17_48
*1072 FILLER_17_481
*1073 FILLER_17_488
*1074 FILLER_17_495
*1075 FILLER_17_502
*1076 FILLER_17_509
*1077 FILLER_17_516
*1078 FILLER_17_523
*1079 FILLER_17_530
*1080 FILLER_17_537
*1081 FILLER_17_544
*1082 FILLER_17_55
*1083 FILLER_17_551
*1084 FILLER_17_558
*1085 FILLER_17_565
*1086 FILLER_17_572
*1087 FILLER_17_579
*1088 FILLER_17_586
*1089 FILLER_17_593
*1090 FILLER_17_600
*1091 FILLER_17_607
*1092 FILLER_17_614
*1093 FILLER_17_62
*1094 FILLER_17_621
*1095 FILLER_17_628
*1096 FILLER_17_635
*1097 FILLER_17_642
*1098 FILLER_17_649
*1099 FILLER_17_656
*1100 FILLER_17_663
*1101 FILLER_17_670
*1102 FILLER_17_677
*1103 FILLER_17_684
*1104 FILLER_17_69
*1105 FILLER_17_691
*1106 FILLER_17_698
*1107 FILLER_17_7
*1108 FILLER_17_705
*1109 FILLER_17_712
*1110 FILLER_17_719
*1111 FILLER_17_726
*1112 FILLER_17_733
*1113 FILLER_17_740
*1114 FILLER_17_747
*1115 FILLER_17_754
*1116 FILLER_17_76
*1117 FILLER_17_761
*1118 FILLER_17_768
*1119 FILLER_17_775
*1120 FILLER_17_782
*1121 FILLER_17_789
*1122 FILLER_17_796
*1123 FILLER_17_803
*1124 FILLER_17_810
*1125 FILLER_17_817
*1126 FILLER_17_824
*1127 FILLER_17_83
*1128 FILLER_17_831
*1129 FILLER_17_838
*1130 FILLER_17_845
*1131 FILLER_17_852
*1132 FILLER_17_859
*1133 FILLER_17_866
*1134 FILLER_17_873
*1135 FILLER_17_880
*1136 FILLER_17_887
*1137 FILLER_17_894
*1138 FILLER_17_90
*1139 FILLER_17_901
*1140 FILLER_17_908
*1141 FILLER_17_915
*1142 FILLER_17_922
*1143 FILLER_17_929
*1144 FILLER_17_936
*1145 FILLER_17_943
*1146 FILLER_17_950
*1147 FILLER_17_957
*1148 FILLER_17_964
*1149 FILLER_17_97
*1150 FILLER_17_971
*1151 FILLER_17_978
*1152 FILLER_17_985
*1153 FILLER_17_992
*1154 FILLER_17_999
*1155 FILLER_18_1006
*1156 FILLER_18_1013
*1157 FILLER_18_102
*1158 FILLER_18_1020
*1159 FILLER_18_1027
*1160 FILLER_18_109
*1161 FILLER_18_11
*1162 FILLER_18_116
*1163 FILLER_18_123
*1164 FILLER_18_130
*1165 FILLER_18_137
*1166 FILLER_18_144
*1167 FILLER_18_151
*1168 FILLER_18_158
*1169 FILLER_18_165
*1170 FILLER_18_172
*1171 FILLER_18_179
*1172 FILLER_18_18
*1173 FILLER_18_25
*1174 FILLER_18_32
*1175 FILLER_18_39
*1176 FILLER_18_390
*1177 FILLER_18_397
*1178 FILLER_18_4
*1179 FILLER_18_404
*1180 FILLER_18_411
*1181 FILLER_18_418
*1182 FILLER_18_425
*1183 FILLER_18_432
*1184 FILLER_18_439
*1185 FILLER_18_446
*1186 FILLER_18_453
*1187 FILLER_18_46
*1188 FILLER_18_460
*1189 FILLER_18_467
*1190 FILLER_18_474
*1191 FILLER_18_481
*1192 FILLER_18_488
*1193 FILLER_18_495
*1194 FILLER_18_502
*1195 FILLER_18_509
*1196 FILLER_18_516
*1197 FILLER_18_523
*1198 FILLER_18_53
*1199 FILLER_18_530
*1200 FILLER_18_537
*1201 FILLER_18_544
*1202 FILLER_18_551
*1203 FILLER_18_558
*1204 FILLER_18_565
*1205 FILLER_18_572
*1206 FILLER_18_579
*1207 FILLER_18_586
*1208 FILLER_18_593
*1209 FILLER_18_60
*1210 FILLER_18_600
*1211 FILLER_18_607
*1212 FILLER_18_614
*1213 FILLER_18_621
*1214 FILLER_18_628
*1215 FILLER_18_635
*1216 FILLER_18_642
*1217 FILLER_18_649
*1218 FILLER_18_656
*1219 FILLER_18_663
*1220 FILLER_18_67
*1221 FILLER_18_670
*1222 FILLER_18_677
*1223 FILLER_18_684
*1224 FILLER_18_691
*1225 FILLER_18_698
*1226 FILLER_18_705
*1227 FILLER_18_712
*1228 FILLER_18_719
*1229 FILLER_18_726
*1230 FILLER_18_733
*1231 FILLER_18_74
*1232 FILLER_18_740
*1233 FILLER_18_747
*1234 FILLER_18_754
*1235 FILLER_18_761
*1236 FILLER_18_768
*1237 FILLER_18_775
*1238 FILLER_18_782
*1239 FILLER_18_789
*1240 FILLER_18_796
*1241 FILLER_18_803
*1242 FILLER_18_81
*1243 FILLER_18_810
*1244 FILLER_18_817
*1245 FILLER_18_824
*1246 FILLER_18_831
*1247 FILLER_18_838
*1248 FILLER_18_845
*1249 FILLER_18_852
*1250 FILLER_18_859
*1251 FILLER_18_866
*1252 FILLER_18_873
*1253 FILLER_18_88
*1254 FILLER_18_880
*1255 FILLER_18_887
*1256 FILLER_18_894
*1257 FILLER_18_901
*1258 FILLER_18_908
*1259 FILLER_18_915
*1260 FILLER_18_922
*1261 FILLER_18_929
*1262 FILLER_18_936
*1263 FILLER_18_943
*1264 FILLER_18_95
*1265 FILLER_18_950
*1266 FILLER_18_957
*1267 FILLER_18_964
*1268 FILLER_18_971
*1269 FILLER_18_978
*1270 FILLER_18_985
*1271 FILLER_18_992
*1272 FILLER_18_999
*1273 FILLER_19_1006
*1274 FILLER_19_1013
*1275 FILLER_19_102
*1276 FILLER_19_1020
*1277 FILLER_19_1027
*1278 FILLER_19_109
*1279 FILLER_19_11
*1280 FILLER_19_116
*1281 FILLER_19_123
*1282 FILLER_19_130
*1283 FILLER_19_137
*1284 FILLER_19_144
*1285 FILLER_19_151
*1286 FILLER_19_158
*1287 FILLER_19_165
*1288 FILLER_19_172
*1289 FILLER_19_179
*1290 FILLER_19_18
*1291 FILLER_19_25
*1292 FILLER_19_32
*1293 FILLER_19_39
*1294 FILLER_19_390
*1295 FILLER_19_397
*1296 FILLER_19_4
*1297 FILLER_19_404
*1298 FILLER_19_411
*1299 FILLER_19_418
*1300 FILLER_19_425
*1301 FILLER_19_432
*1302 FILLER_19_439
*1303 FILLER_19_446
*1304 FILLER_19_453
*1305 FILLER_19_46
*1306 FILLER_19_460
*1307 FILLER_19_467
*1308 FILLER_19_474
*1309 FILLER_19_481
*1310 FILLER_19_488
*1311 FILLER_19_495
*1312 FILLER_19_502
*1313 FILLER_19_509
*1314 FILLER_19_516
*1315 FILLER_19_523
*1316 FILLER_19_53
*1317 FILLER_19_530
*1318 FILLER_19_537
*1319 FILLER_19_544
*1320 FILLER_19_551
*1321 FILLER_19_558
*1322 FILLER_19_565
*1323 FILLER_19_572
*1324 FILLER_19_579
*1325 FILLER_19_586
*1326 FILLER_19_593
*1327 FILLER_19_60
*1328 FILLER_19_600
*1329 FILLER_19_607
*1330 FILLER_19_614
*1331 FILLER_19_621
*1332 FILLER_19_628
*1333 FILLER_19_635
*1334 FILLER_19_642
*1335 FILLER_19_649
*1336 FILLER_19_656
*1337 FILLER_19_663
*1338 FILLER_19_67
*1339 FILLER_19_670
*1340 FILLER_19_677
*1341 FILLER_19_684
*1342 FILLER_19_691
*1343 FILLER_19_698
*1344 FILLER_19_705
*1345 FILLER_19_712
*1346 FILLER_19_719
*1347 FILLER_19_726
*1348 FILLER_19_733
*1349 FILLER_19_74
*1350 FILLER_19_740
*1351 FILLER_19_747
*1352 FILLER_19_754
*1353 FILLER_19_761
*1354 FILLER_19_768
*1355 FILLER_19_775
*1356 FILLER_19_782
*1357 FILLER_19_789
*1358 FILLER_19_796
*1359 FILLER_19_803
*1360 FILLER_19_81
*1361 FILLER_19_810
*1362 FILLER_19_817
*1363 FILLER_19_824
*1364 FILLER_19_831
*1365 FILLER_19_838
*1366 FILLER_19_845
*1367 FILLER_19_852
*1368 FILLER_19_859
*1369 FILLER_19_866
*1370 FILLER_19_873
*1371 FILLER_19_88
*1372 FILLER_19_880
*1373 FILLER_19_887
*1374 FILLER_19_894
*1375 FILLER_19_901
*1376 FILLER_19_908
*1377 FILLER_19_915
*1378 FILLER_19_922
*1379 FILLER_19_929
*1380 FILLER_19_936
*1381 FILLER_19_943
*1382 FILLER_19_95
*1383 FILLER_19_950
*1384 FILLER_19_957
*1385 FILLER_19_964
*1386 FILLER_19_971
*1387 FILLER_19_978
*1388 FILLER_19_985
*1389 FILLER_19_992
*1390 FILLER_19_999
*1391 FILLER_1_0
*1392 FILLER_1_1001
*1393 FILLER_1_1008
*1394 FILLER_1_1015
*1395 FILLER_1_1022
*1396 FILLER_1_105
*1397 FILLER_1_112
*1398 FILLER_1_119
*1399 FILLER_1_126
*1400 FILLER_1_133
*1401 FILLER_1_14
*1402 FILLER_1_140
*1403 FILLER_1_147
*1404 FILLER_1_154
*1405 FILLER_1_161
*1406 FILLER_1_168
*1407 FILLER_1_175
*1408 FILLER_1_182
*1409 FILLER_1_189
*1410 FILLER_1_196
*1411 FILLER_1_203
*1412 FILLER_1_21
*1413 FILLER_1_210
*1414 FILLER_1_217
*1415 FILLER_1_224
*1416 FILLER_1_231
*1417 FILLER_1_238
*1418 FILLER_1_245
*1419 FILLER_1_252
*1420 FILLER_1_259
*1421 FILLER_1_266
*1422 FILLER_1_273
*1423 FILLER_1_28
*1424 FILLER_1_280
*1425 FILLER_1_287
*1426 FILLER_1_294
*1427 FILLER_1_301
*1428 FILLER_1_308
*1429 FILLER_1_315
*1430 FILLER_1_322
*1431 FILLER_1_329
*1432 FILLER_1_336
*1433 FILLER_1_343
*1434 FILLER_1_35
*1435 FILLER_1_350
*1436 FILLER_1_357
*1437 FILLER_1_364
*1438 FILLER_1_371
*1439 FILLER_1_378
*1440 FILLER_1_385
*1441 FILLER_1_392
*1442 FILLER_1_399
*1443 FILLER_1_406
*1444 FILLER_1_413
*1445 FILLER_1_42
*1446 FILLER_1_420
*1447 FILLER_1_427
*1448 FILLER_1_434
*1449 FILLER_1_441
*1450 FILLER_1_448
*1451 FILLER_1_455
*1452 FILLER_1_462
*1453 FILLER_1_469
*1454 FILLER_1_476
*1455 FILLER_1_483
*1456 FILLER_1_49
*1457 FILLER_1_490
*1458 FILLER_1_497
*1459 FILLER_1_504
*1460 FILLER_1_511
*1461 FILLER_1_518
*1462 FILLER_1_525
*1463 FILLER_1_532
*1464 FILLER_1_539
*1465 FILLER_1_546
*1466 FILLER_1_553
*1467 FILLER_1_56
*1468 FILLER_1_560
*1469 FILLER_1_567
*1470 FILLER_1_574
*1471 FILLER_1_581
*1472 FILLER_1_588
*1473 FILLER_1_595
*1474 FILLER_1_602
*1475 FILLER_1_609
*1476 FILLER_1_616
*1477 FILLER_1_623
*1478 FILLER_1_63
*1479 FILLER_1_630
*1480 FILLER_1_637
*1481 FILLER_1_644
*1482 FILLER_1_651
*1483 FILLER_1_658
*1484 FILLER_1_665
*1485 FILLER_1_672
*1486 FILLER_1_679
*1487 FILLER_1_686
*1488 FILLER_1_693
*1489 FILLER_1_7
*1490 FILLER_1_70
*1491 FILLER_1_700
*1492 FILLER_1_707
*1493 FILLER_1_714
*1494 FILLER_1_721
*1495 FILLER_1_728
*1496 FILLER_1_735
*1497 FILLER_1_742
*1498 FILLER_1_749
*1499 FILLER_1_756
*1500 FILLER_1_763
*1501 FILLER_1_77
*1502 FILLER_1_770
*1503 FILLER_1_777
*1504 FILLER_1_784
*1505 FILLER_1_791
*1506 FILLER_1_798
*1507 FILLER_1_805
*1508 FILLER_1_812
*1509 FILLER_1_819
*1510 FILLER_1_826
*1511 FILLER_1_833
*1512 FILLER_1_84
*1513 FILLER_1_840
*1514 FILLER_1_847
*1515 FILLER_1_854
*1516 FILLER_1_861
*1517 FILLER_1_868
*1518 FILLER_1_875
*1519 FILLER_1_882
*1520 FILLER_1_889
*1521 FILLER_1_896
*1522 FILLER_1_903
*1523 FILLER_1_91
*1524 FILLER_1_910
*1525 FILLER_1_917
*1526 FILLER_1_924
*1527 FILLER_1_931
*1528 FILLER_1_938
*1529 FILLER_1_945
*1530 FILLER_1_952
*1531 FILLER_1_959
*1532 FILLER_1_966
*1533 FILLER_1_973
*1534 FILLER_1_98
*1535 FILLER_1_980
*1536 FILLER_1_987
*1537 FILLER_1_994
*1538 FILLER_20_1006
*1539 FILLER_20_1013
*1540 FILLER_20_102
*1541 FILLER_20_1020
*1542 FILLER_20_1027
*1543 FILLER_20_109
*1544 FILLER_20_11
*1545 FILLER_20_116
*1546 FILLER_20_123
*1547 FILLER_20_130
*1548 FILLER_20_137
*1549 FILLER_20_144
*1550 FILLER_20_151
*1551 FILLER_20_158
*1552 FILLER_20_165
*1553 FILLER_20_172
*1554 FILLER_20_179
*1555 FILLER_20_18
*1556 FILLER_20_25
*1557 FILLER_20_32
*1558 FILLER_20_39
*1559 FILLER_20_390
*1560 FILLER_20_397
*1561 FILLER_20_4
*1562 FILLER_20_404
*1563 FILLER_20_411
*1564 FILLER_20_418
*1565 FILLER_20_425
*1566 FILLER_20_432
*1567 FILLER_20_439
*1568 FILLER_20_446
*1569 FILLER_20_453
*1570 FILLER_20_46
*1571 FILLER_20_460
*1572 FILLER_20_467
*1573 FILLER_20_474
*1574 FILLER_20_481
*1575 FILLER_20_488
*1576 FILLER_20_495
*1577 FILLER_20_502
*1578 FILLER_20_509
*1579 FILLER_20_516
*1580 FILLER_20_523
*1581 FILLER_20_53
*1582 FILLER_20_530
*1583 FILLER_20_537
*1584 FILLER_20_544
*1585 FILLER_20_551
*1586 FILLER_20_558
*1587 FILLER_20_565
*1588 FILLER_20_572
*1589 FILLER_20_579
*1590 FILLER_20_586
*1591 FILLER_20_593
*1592 FILLER_20_60
*1593 FILLER_20_600
*1594 FILLER_20_607
*1595 FILLER_20_614
*1596 FILLER_20_621
*1597 FILLER_20_628
*1598 FILLER_20_635
*1599 FILLER_20_642
*1600 FILLER_20_649
*1601 FILLER_20_656
*1602 FILLER_20_663
*1603 FILLER_20_67
*1604 FILLER_20_670
*1605 FILLER_20_677
*1606 FILLER_20_684
*1607 FILLER_20_691
*1608 FILLER_20_698
*1609 FILLER_20_705
*1610 FILLER_20_712
*1611 FILLER_20_719
*1612 FILLER_20_726
*1613 FILLER_20_733
*1614 FILLER_20_74
*1615 FILLER_20_740
*1616 FILLER_20_747
*1617 FILLER_20_754
*1618 FILLER_20_761
*1619 FILLER_20_768
*1620 FILLER_20_775
*1621 FILLER_20_782
*1622 FILLER_20_789
*1623 FILLER_20_796
*1624 FILLER_20_803
*1625 FILLER_20_81
*1626 FILLER_20_810
*1627 FILLER_20_817
*1628 FILLER_20_824
*1629 FILLER_20_831
*1630 FILLER_20_838
*1631 FILLER_20_845
*1632 FILLER_20_852
*1633 FILLER_20_859
*1634 FILLER_20_866
*1635 FILLER_20_873
*1636 FILLER_20_88
*1637 FILLER_20_880
*1638 FILLER_20_887
*1639 FILLER_20_894
*1640 FILLER_20_901
*1641 FILLER_20_908
*1642 FILLER_20_915
*1643 FILLER_20_922
*1644 FILLER_20_929
*1645 FILLER_20_936
*1646 FILLER_20_943
*1647 FILLER_20_95
*1648 FILLER_20_950
*1649 FILLER_20_957
*1650 FILLER_20_964
*1651 FILLER_20_971
*1652 FILLER_20_978
*1653 FILLER_20_985
*1654 FILLER_20_992
*1655 FILLER_20_999
*1656 FILLER_21_1006
*1657 FILLER_21_1013
*1658 FILLER_21_102
*1659 FILLER_21_1020
*1660 FILLER_21_1027
*1661 FILLER_21_109
*1662 FILLER_21_11
*1663 FILLER_21_116
*1664 FILLER_21_123
*1665 FILLER_21_130
*1666 FILLER_21_137
*1667 FILLER_21_144
*1668 FILLER_21_151
*1669 FILLER_21_158
*1670 FILLER_21_165
*1671 FILLER_21_172
*1672 FILLER_21_179
*1673 FILLER_21_18
*1674 FILLER_21_25
*1675 FILLER_21_32
*1676 FILLER_21_39
*1677 FILLER_21_390
*1678 FILLER_21_397
*1679 FILLER_21_4
*1680 FILLER_21_404
*1681 FILLER_21_411
*1682 FILLER_21_418
*1683 FILLER_21_425
*1684 FILLER_21_432
*1685 FILLER_21_439
*1686 FILLER_21_446
*1687 FILLER_21_453
*1688 FILLER_21_46
*1689 FILLER_21_460
*1690 FILLER_21_467
*1691 FILLER_21_474
*1692 FILLER_21_481
*1693 FILLER_21_488
*1694 FILLER_21_495
*1695 FILLER_21_502
*1696 FILLER_21_509
*1697 FILLER_21_516
*1698 FILLER_21_523
*1699 FILLER_21_53
*1700 FILLER_21_530
*1701 FILLER_21_537
*1702 FILLER_21_544
*1703 FILLER_21_551
*1704 FILLER_21_558
*1705 FILLER_21_565
*1706 FILLER_21_572
*1707 FILLER_21_579
*1708 FILLER_21_586
*1709 FILLER_21_593
*1710 FILLER_21_60
*1711 FILLER_21_600
*1712 FILLER_21_607
*1713 FILLER_21_614
*1714 FILLER_21_621
*1715 FILLER_21_628
*1716 FILLER_21_635
*1717 FILLER_21_642
*1718 FILLER_21_649
*1719 FILLER_21_656
*1720 FILLER_21_663
*1721 FILLER_21_67
*1722 FILLER_21_670
*1723 FILLER_21_677
*1724 FILLER_21_684
*1725 FILLER_21_691
*1726 FILLER_21_698
*1727 FILLER_21_705
*1728 FILLER_21_712
*1729 FILLER_21_719
*1730 FILLER_21_726
*1731 FILLER_21_733
*1732 FILLER_21_74
*1733 FILLER_21_740
*1734 FILLER_21_747
*1735 FILLER_21_754
*1736 FILLER_21_761
*1737 FILLER_21_768
*1738 FILLER_21_775
*1739 FILLER_21_782
*1740 FILLER_21_789
*1741 FILLER_21_796
*1742 FILLER_21_803
*1743 FILLER_21_81
*1744 FILLER_21_810
*1745 FILLER_21_817
*1746 FILLER_21_824
*1747 FILLER_21_831
*1748 FILLER_21_838
*1749 FILLER_21_845
*1750 FILLER_21_852
*1751 FILLER_21_859
*1752 FILLER_21_866
*1753 FILLER_21_873
*1754 FILLER_21_88
*1755 FILLER_21_880
*1756 FILLER_21_887
*1757 FILLER_21_894
*1758 FILLER_21_901
*1759 FILLER_21_908
*1760 FILLER_21_915
*1761 FILLER_21_922
*1762 FILLER_21_929
*1763 FILLER_21_936
*1764 FILLER_21_943
*1765 FILLER_21_95
*1766 FILLER_21_950
*1767 FILLER_21_957
*1768 FILLER_21_964
*1769 FILLER_21_971
*1770 FILLER_21_978
*1771 FILLER_21_985
*1772 FILLER_21_992
*1773 FILLER_21_999
*1774 FILLER_22_1006
*1775 FILLER_22_1013
*1776 FILLER_22_102
*1777 FILLER_22_1020
*1778 FILLER_22_1027
*1779 FILLER_22_109
*1780 FILLER_22_11
*1781 FILLER_22_116
*1782 FILLER_22_123
*1783 FILLER_22_130
*1784 FILLER_22_137
*1785 FILLER_22_144
*1786 FILLER_22_151
*1787 FILLER_22_158
*1788 FILLER_22_165
*1789 FILLER_22_172
*1790 FILLER_22_179
*1791 FILLER_22_18
*1792 FILLER_22_25
*1793 FILLER_22_32
*1794 FILLER_22_39
*1795 FILLER_22_390
*1796 FILLER_22_397
*1797 FILLER_22_4
*1798 FILLER_22_404
*1799 FILLER_22_411
*1800 FILLER_22_418
*1801 FILLER_22_425
*1802 FILLER_22_432
*1803 FILLER_22_439
*1804 FILLER_22_446
*1805 FILLER_22_453
*1806 FILLER_22_46
*1807 FILLER_22_460
*1808 FILLER_22_467
*1809 FILLER_22_474
*1810 FILLER_22_481
*1811 FILLER_22_488
*1812 FILLER_22_495
*1813 FILLER_22_502
*1814 FILLER_22_509
*1815 FILLER_22_516
*1816 FILLER_22_523
*1817 FILLER_22_53
*1818 FILLER_22_530
*1819 FILLER_22_537
*1820 FILLER_22_544
*1821 FILLER_22_551
*1822 FILLER_22_558
*1823 FILLER_22_565
*1824 FILLER_22_572
*1825 FILLER_22_579
*1826 FILLER_22_586
*1827 FILLER_22_593
*1828 FILLER_22_60
*1829 FILLER_22_600
*1830 FILLER_22_607
*1831 FILLER_22_614
*1832 FILLER_22_621
*1833 FILLER_22_628
*1834 FILLER_22_635
*1835 FILLER_22_642
*1836 FILLER_22_649
*1837 FILLER_22_656
*1838 FILLER_22_663
*1839 FILLER_22_67
*1840 FILLER_22_670
*1841 FILLER_22_677
*1842 FILLER_22_684
*1843 FILLER_22_691
*1844 FILLER_22_698
*1845 FILLER_22_705
*1846 FILLER_22_712
*1847 FILLER_22_719
*1848 FILLER_22_726
*1849 FILLER_22_733
*1850 FILLER_22_74
*1851 FILLER_22_740
*1852 FILLER_22_747
*1853 FILLER_22_754
*1854 FILLER_22_761
*1855 FILLER_22_768
*1856 FILLER_22_775
*1857 FILLER_22_782
*1858 FILLER_22_789
*1859 FILLER_22_796
*1860 FILLER_22_803
*1861 FILLER_22_81
*1862 FILLER_22_810
*1863 FILLER_22_817
*1864 FILLER_22_824
*1865 FILLER_22_831
*1866 FILLER_22_838
*1867 FILLER_22_845
*1868 FILLER_22_852
*1869 FILLER_22_859
*1870 FILLER_22_866
*1871 FILLER_22_873
*1872 FILLER_22_88
*1873 FILLER_22_880
*1874 FILLER_22_887
*1875 FILLER_22_894
*1876 FILLER_22_901
*1877 FILLER_22_908
*1878 FILLER_22_915
*1879 FILLER_22_922
*1880 FILLER_22_929
*1881 FILLER_22_936
*1882 FILLER_22_943
*1883 FILLER_22_95
*1884 FILLER_22_950
*1885 FILLER_22_957
*1886 FILLER_22_964
*1887 FILLER_22_971
*1888 FILLER_22_978
*1889 FILLER_22_985
*1890 FILLER_22_992
*1891 FILLER_22_999
*1892 FILLER_23_1006
*1893 FILLER_23_1013
*1894 FILLER_23_102
*1895 FILLER_23_1020
*1896 FILLER_23_1027
*1897 FILLER_23_109
*1898 FILLER_23_11
*1899 FILLER_23_116
*1900 FILLER_23_123
*1901 FILLER_23_130
*1902 FILLER_23_137
*1903 FILLER_23_144
*1904 FILLER_23_151
*1905 FILLER_23_158
*1906 FILLER_23_165
*1907 FILLER_23_172
*1908 FILLER_23_179
*1909 FILLER_23_18
*1910 FILLER_23_25
*1911 FILLER_23_32
*1912 FILLER_23_39
*1913 FILLER_23_390
*1914 FILLER_23_397
*1915 FILLER_23_4
*1916 FILLER_23_404
*1917 FILLER_23_411
*1918 FILLER_23_418
*1919 FILLER_23_425
*1920 FILLER_23_432
*1921 FILLER_23_439
*1922 FILLER_23_446
*1923 FILLER_23_453
*1924 FILLER_23_46
*1925 FILLER_23_460
*1926 FILLER_23_467
*1927 FILLER_23_474
*1928 FILLER_23_481
*1929 FILLER_23_488
*1930 FILLER_23_495
*1931 FILLER_23_502
*1932 FILLER_23_509
*1933 FILLER_23_516
*1934 FILLER_23_523
*1935 FILLER_23_53
*1936 FILLER_23_530
*1937 FILLER_23_537
*1938 FILLER_23_544
*1939 FILLER_23_551
*1940 FILLER_23_558
*1941 FILLER_23_565
*1942 FILLER_23_572
*1943 FILLER_23_579
*1944 FILLER_23_586
*1945 FILLER_23_593
*1946 FILLER_23_60
*1947 FILLER_23_600
*1948 FILLER_23_607
*1949 FILLER_23_614
*1950 FILLER_23_621
*1951 FILLER_23_628
*1952 FILLER_23_635
*1953 FILLER_23_642
*1954 FILLER_23_649
*1955 FILLER_23_656
*1956 FILLER_23_663
*1957 FILLER_23_67
*1958 FILLER_23_670
*1959 FILLER_23_677
*1960 FILLER_23_684
*1961 FILLER_23_691
*1962 FILLER_23_698
*1963 FILLER_23_705
*1964 FILLER_23_712
*1965 FILLER_23_719
*1966 FILLER_23_726
*1967 FILLER_23_733
*1968 FILLER_23_74
*1969 FILLER_23_740
*1970 FILLER_23_747
*1971 FILLER_23_754
*1972 FILLER_23_761
*1973 FILLER_23_768
*1974 FILLER_23_775
*1975 FILLER_23_782
*1976 FILLER_23_789
*1977 FILLER_23_796
*1978 FILLER_23_803
*1979 FILLER_23_81
*1980 FILLER_23_810
*1981 FILLER_23_817
*1982 FILLER_23_824
*1983 FILLER_23_831
*1984 FILLER_23_838
*1985 FILLER_23_845
*1986 FILLER_23_852
*1987 FILLER_23_859
*1988 FILLER_23_866
*1989 FILLER_23_873
*1990 FILLER_23_88
*1991 FILLER_23_880
*1992 FILLER_23_887
*1993 FILLER_23_894
*1994 FILLER_23_901
*1995 FILLER_23_908
*1996 FILLER_23_915
*1997 FILLER_23_922
*1998 FILLER_23_929
*1999 FILLER_23_936
*2000 FILLER_23_943
*2001 FILLER_23_95
*2002 FILLER_23_950
*2003 FILLER_23_957
*2004 FILLER_23_964
*2005 FILLER_23_971
*2006 FILLER_23_978
*2007 FILLER_23_985
*2008 FILLER_23_992
*2009 FILLER_23_999
*2010 FILLER_24_1006
*2011 FILLER_24_1013
*2012 FILLER_24_102
*2013 FILLER_24_1020
*2014 FILLER_24_1027
*2015 FILLER_24_109
*2016 FILLER_24_11
*2017 FILLER_24_116
*2018 FILLER_24_123
*2019 FILLER_24_130
*2020 FILLER_24_137
*2021 FILLER_24_144
*2022 FILLER_24_151
*2023 FILLER_24_158
*2024 FILLER_24_165
*2025 FILLER_24_172
*2026 FILLER_24_179
*2027 FILLER_24_18
*2028 FILLER_24_25
*2029 FILLER_24_32
*2030 FILLER_24_39
*2031 FILLER_24_390
*2032 FILLER_24_397
*2033 FILLER_24_4
*2034 FILLER_24_404
*2035 FILLER_24_411
*2036 FILLER_24_418
*2037 FILLER_24_425
*2038 FILLER_24_432
*2039 FILLER_24_439
*2040 FILLER_24_446
*2041 FILLER_24_453
*2042 FILLER_24_46
*2043 FILLER_24_460
*2044 FILLER_24_467
*2045 FILLER_24_474
*2046 FILLER_24_481
*2047 FILLER_24_488
*2048 FILLER_24_495
*2049 FILLER_24_502
*2050 FILLER_24_509
*2051 FILLER_24_516
*2052 FILLER_24_523
*2053 FILLER_24_53
*2054 FILLER_24_530
*2055 FILLER_24_537
*2056 FILLER_24_544
*2057 FILLER_24_551
*2058 FILLER_24_558
*2059 FILLER_24_565
*2060 FILLER_24_572
*2061 FILLER_24_579
*2062 FILLER_24_586
*2063 FILLER_24_593
*2064 FILLER_24_60
*2065 FILLER_24_600
*2066 FILLER_24_607
*2067 FILLER_24_614
*2068 FILLER_24_621
*2069 FILLER_24_628
*2070 FILLER_24_635
*2071 FILLER_24_642
*2072 FILLER_24_649
*2073 FILLER_24_656
*2074 FILLER_24_663
*2075 FILLER_24_67
*2076 FILLER_24_670
*2077 FILLER_24_677
*2078 FILLER_24_684
*2079 FILLER_24_691
*2080 FILLER_24_698
*2081 FILLER_24_705
*2082 FILLER_24_712
*2083 FILLER_24_719
*2084 FILLER_24_726
*2085 FILLER_24_733
*2086 FILLER_24_74
*2087 FILLER_24_740
*2088 FILLER_24_747
*2089 FILLER_24_754
*2090 FILLER_24_761
*2091 FILLER_24_768
*2092 FILLER_24_775
*2093 FILLER_24_782
*2094 FILLER_24_789
*2095 FILLER_24_796
*2096 FILLER_24_803
*2097 FILLER_24_81
*2098 FILLER_24_810
*2099 FILLER_24_817
*2100 FILLER_24_824
*2101 FILLER_24_831
*2102 FILLER_24_838
*2103 FILLER_24_845
*2104 FILLER_24_852
*2105 FILLER_24_859
*2106 FILLER_24_866
*2107 FILLER_24_873
*2108 FILLER_24_88
*2109 FILLER_24_880
*2110 FILLER_24_887
*2111 FILLER_24_894
*2112 FILLER_24_901
*2113 FILLER_24_908
*2114 FILLER_24_915
*2115 FILLER_24_922
*2116 FILLER_24_929
*2117 FILLER_24_936
*2118 FILLER_24_943
*2119 FILLER_24_95
*2120 FILLER_24_950
*2121 FILLER_24_957
*2122 FILLER_24_964
*2123 FILLER_24_971
*2124 FILLER_24_978
*2125 FILLER_24_985
*2126 FILLER_24_992
*2127 FILLER_24_999
*2128 FILLER_25_1006
*2129 FILLER_25_1013
*2130 FILLER_25_102
*2131 FILLER_25_1020
*2132 FILLER_25_1027
*2133 FILLER_25_109
*2134 FILLER_25_11
*2135 FILLER_25_116
*2136 FILLER_25_123
*2137 FILLER_25_130
*2138 FILLER_25_137
*2139 FILLER_25_144
*2140 FILLER_25_151
*2141 FILLER_25_158
*2142 FILLER_25_165
*2143 FILLER_25_172
*2144 FILLER_25_179
*2145 FILLER_25_18
*2146 FILLER_25_25
*2147 FILLER_25_32
*2148 FILLER_25_39
*2149 FILLER_25_390
*2150 FILLER_25_397
*2151 FILLER_25_4
*2152 FILLER_25_404
*2153 FILLER_25_411
*2154 FILLER_25_418
*2155 FILLER_25_425
*2156 FILLER_25_432
*2157 FILLER_25_439
*2158 FILLER_25_446
*2159 FILLER_25_453
*2160 FILLER_25_46
*2161 FILLER_25_460
*2162 FILLER_25_467
*2163 FILLER_25_474
*2164 FILLER_25_481
*2165 FILLER_25_488
*2166 FILLER_25_495
*2167 FILLER_25_502
*2168 FILLER_25_509
*2169 FILLER_25_516
*2170 FILLER_25_523
*2171 FILLER_25_53
*2172 FILLER_25_530
*2173 FILLER_25_537
*2174 FILLER_25_544
*2175 FILLER_25_551
*2176 FILLER_25_558
*2177 FILLER_25_565
*2178 FILLER_25_572
*2179 FILLER_25_579
*2180 FILLER_25_586
*2181 FILLER_25_593
*2182 FILLER_25_60
*2183 FILLER_25_600
*2184 FILLER_25_607
*2185 FILLER_25_614
*2186 FILLER_25_621
*2187 FILLER_25_628
*2188 FILLER_25_635
*2189 FILLER_25_642
*2190 FILLER_25_649
*2191 FILLER_25_656
*2192 FILLER_25_663
*2193 FILLER_25_67
*2194 FILLER_25_670
*2195 FILLER_25_677
*2196 FILLER_25_684
*2197 FILLER_25_691
*2198 FILLER_25_698
*2199 FILLER_25_705
*2200 FILLER_25_712
*2201 FILLER_25_719
*2202 FILLER_25_726
*2203 FILLER_25_733
*2204 FILLER_25_74
*2205 FILLER_25_740
*2206 FILLER_25_747
*2207 FILLER_25_754
*2208 FILLER_25_761
*2209 FILLER_25_768
*2210 FILLER_25_775
*2211 FILLER_25_782
*2212 FILLER_25_789
*2213 FILLER_25_796
*2214 FILLER_25_803
*2215 FILLER_25_81
*2216 FILLER_25_810
*2217 FILLER_25_817
*2218 FILLER_25_824
*2219 FILLER_25_831
*2220 FILLER_25_838
*2221 FILLER_25_845
*2222 FILLER_25_852
*2223 FILLER_25_859
*2224 FILLER_25_866
*2225 FILLER_25_873
*2226 FILLER_25_88
*2227 FILLER_25_880
*2228 FILLER_25_887
*2229 FILLER_25_894
*2230 FILLER_25_901
*2231 FILLER_25_908
*2232 FILLER_25_915
*2233 FILLER_25_922
*2234 FILLER_25_929
*2235 FILLER_25_936
*2236 FILLER_25_943
*2237 FILLER_25_95
*2238 FILLER_25_950
*2239 FILLER_25_957
*2240 FILLER_25_964
*2241 FILLER_25_971
*2242 FILLER_25_978
*2243 FILLER_25_985
*2244 FILLER_25_992
*2245 FILLER_25_999
*2246 FILLER_26_1006
*2247 FILLER_26_1013
*2248 FILLER_26_102
*2249 FILLER_26_1020
*2250 FILLER_26_1027
*2251 FILLER_26_109
*2252 FILLER_26_11
*2253 FILLER_26_116
*2254 FILLER_26_123
*2255 FILLER_26_130
*2256 FILLER_26_137
*2257 FILLER_26_144
*2258 FILLER_26_151
*2259 FILLER_26_158
*2260 FILLER_26_165
*2261 FILLER_26_172
*2262 FILLER_26_179
*2263 FILLER_26_18
*2264 FILLER_26_25
*2265 FILLER_26_32
*2266 FILLER_26_39
*2267 FILLER_26_390
*2268 FILLER_26_397
*2269 FILLER_26_4
*2270 FILLER_26_404
*2271 FILLER_26_411
*2272 FILLER_26_418
*2273 FILLER_26_425
*2274 FILLER_26_432
*2275 FILLER_26_439
*2276 FILLER_26_446
*2277 FILLER_26_453
*2278 FILLER_26_46
*2279 FILLER_26_460
*2280 FILLER_26_467
*2281 FILLER_26_474
*2282 FILLER_26_481
*2283 FILLER_26_488
*2284 FILLER_26_495
*2285 FILLER_26_502
*2286 FILLER_26_509
*2287 FILLER_26_516
*2288 FILLER_26_523
*2289 FILLER_26_53
*2290 FILLER_26_530
*2291 FILLER_26_537
*2292 FILLER_26_544
*2293 FILLER_26_551
*2294 FILLER_26_558
*2295 FILLER_26_565
*2296 FILLER_26_572
*2297 FILLER_26_579
*2298 FILLER_26_586
*2299 FILLER_26_593
*2300 FILLER_26_60
*2301 FILLER_26_600
*2302 FILLER_26_607
*2303 FILLER_26_614
*2304 FILLER_26_621
*2305 FILLER_26_628
*2306 FILLER_26_635
*2307 FILLER_26_642
*2308 FILLER_26_649
*2309 FILLER_26_656
*2310 FILLER_26_663
*2311 FILLER_26_67
*2312 FILLER_26_670
*2313 FILLER_26_677
*2314 FILLER_26_684
*2315 FILLER_26_691
*2316 FILLER_26_698
*2317 FILLER_26_705
*2318 FILLER_26_712
*2319 FILLER_26_719
*2320 FILLER_26_726
*2321 FILLER_26_733
*2322 FILLER_26_74
*2323 FILLER_26_740
*2324 FILLER_26_747
*2325 FILLER_26_754
*2326 FILLER_26_761
*2327 FILLER_26_768
*2328 FILLER_26_775
*2329 FILLER_26_782
*2330 FILLER_26_789
*2331 FILLER_26_796
*2332 FILLER_26_803
*2333 FILLER_26_81
*2334 FILLER_26_810
*2335 FILLER_26_817
*2336 FILLER_26_824
*2337 FILLER_26_831
*2338 FILLER_26_838
*2339 FILLER_26_845
*2340 FILLER_26_852
*2341 FILLER_26_859
*2342 FILLER_26_866
*2343 FILLER_26_873
*2344 FILLER_26_88
*2345 FILLER_26_880
*2346 FILLER_26_887
*2347 FILLER_26_894
*2348 FILLER_26_901
*2349 FILLER_26_908
*2350 FILLER_26_915
*2351 FILLER_26_922
*2352 FILLER_26_929
*2353 FILLER_26_936
*2354 FILLER_26_943
*2355 FILLER_26_95
*2356 FILLER_26_950
*2357 FILLER_26_957
*2358 FILLER_26_964
*2359 FILLER_26_971
*2360 FILLER_26_978
*2361 FILLER_26_985
*2362 FILLER_26_992
*2363 FILLER_26_999
*2364 FILLER_27_0
*2365 FILLER_27_1006
*2366 FILLER_27_1013
*2367 FILLER_27_1020
*2368 FILLER_27_1027
*2369 FILLER_27_105
*2370 FILLER_27_112
*2371 FILLER_27_119
*2372 FILLER_27_126
*2373 FILLER_27_133
*2374 FILLER_27_14
*2375 FILLER_27_140
*2376 FILLER_27_147
*2377 FILLER_27_154
*2378 FILLER_27_161
*2379 FILLER_27_168
*2380 FILLER_27_175
*2381 FILLER_27_179
*2382 FILLER_27_21
*2383 FILLER_27_28
*2384 FILLER_27_35
*2385 FILLER_27_390
*2386 FILLER_27_397
*2387 FILLER_27_404
*2388 FILLER_27_411
*2389 FILLER_27_418
*2390 FILLER_27_42
*2391 FILLER_27_425
*2392 FILLER_27_432
*2393 FILLER_27_439
*2394 FILLER_27_446
*2395 FILLER_27_453
*2396 FILLER_27_460
*2397 FILLER_27_467
*2398 FILLER_27_474
*2399 FILLER_27_481
*2400 FILLER_27_488
*2401 FILLER_27_49
*2402 FILLER_27_495
*2403 FILLER_27_502
*2404 FILLER_27_509
*2405 FILLER_27_516
*2406 FILLER_27_523
*2407 FILLER_27_530
*2408 FILLER_27_537
*2409 FILLER_27_544
*2410 FILLER_27_551
*2411 FILLER_27_558
*2412 FILLER_27_56
*2413 FILLER_27_565
*2414 FILLER_27_572
*2415 FILLER_27_579
*2416 FILLER_27_586
*2417 FILLER_27_593
*2418 FILLER_27_600
*2419 FILLER_27_607
*2420 FILLER_27_614
*2421 FILLER_27_621
*2422 FILLER_27_628
*2423 FILLER_27_63
*2424 FILLER_27_635
*2425 FILLER_27_642
*2426 FILLER_27_649
*2427 FILLER_27_656
*2428 FILLER_27_663
*2429 FILLER_27_670
*2430 FILLER_27_677
*2431 FILLER_27_684
*2432 FILLER_27_691
*2433 FILLER_27_698
*2434 FILLER_27_7
*2435 FILLER_27_70
*2436 FILLER_27_705
*2437 FILLER_27_712
*2438 FILLER_27_719
*2439 FILLER_27_726
*2440 FILLER_27_733
*2441 FILLER_27_740
*2442 FILLER_27_747
*2443 FILLER_27_754
*2444 FILLER_27_761
*2445 FILLER_27_768
*2446 FILLER_27_77
*2447 FILLER_27_775
*2448 FILLER_27_782
*2449 FILLER_27_789
*2450 FILLER_27_796
*2451 FILLER_27_803
*2452 FILLER_27_810
*2453 FILLER_27_817
*2454 FILLER_27_824
*2455 FILLER_27_831
*2456 FILLER_27_838
*2457 FILLER_27_84
*2458 FILLER_27_845
*2459 FILLER_27_852
*2460 FILLER_27_859
*2461 FILLER_27_866
*2462 FILLER_27_873
*2463 FILLER_27_880
*2464 FILLER_27_887
*2465 FILLER_27_894
*2466 FILLER_27_901
*2467 FILLER_27_908
*2468 FILLER_27_91
*2469 FILLER_27_915
*2470 FILLER_27_922
*2471 FILLER_27_929
*2472 FILLER_27_936
*2473 FILLER_27_943
*2474 FILLER_27_950
*2475 FILLER_27_957
*2476 FILLER_27_964
*2477 FILLER_27_971
*2478 FILLER_27_978
*2479 FILLER_27_98
*2480 FILLER_27_985
*2481 FILLER_27_992
*2482 FILLER_27_999
*2483 FILLER_28_1006
*2484 FILLER_28_1013
*2485 FILLER_28_102
*2486 FILLER_28_1020
*2487 FILLER_28_1027
*2488 FILLER_28_109
*2489 FILLER_28_11
*2490 FILLER_28_116
*2491 FILLER_28_123
*2492 FILLER_28_130
*2493 FILLER_28_137
*2494 FILLER_28_144
*2495 FILLER_28_151
*2496 FILLER_28_158
*2497 FILLER_28_165
*2498 FILLER_28_172
*2499 FILLER_28_179
*2500 FILLER_28_18
*2501 FILLER_28_25
*2502 FILLER_28_32
*2503 FILLER_28_39
*2504 FILLER_28_390
*2505 FILLER_28_397
*2506 FILLER_28_4
*2507 FILLER_28_404
*2508 FILLER_28_411
*2509 FILLER_28_418
*2510 FILLER_28_425
*2511 FILLER_28_432
*2512 FILLER_28_439
*2513 FILLER_28_446
*2514 FILLER_28_453
*2515 FILLER_28_46
*2516 FILLER_28_460
*2517 FILLER_28_467
*2518 FILLER_28_474
*2519 FILLER_28_481
*2520 FILLER_28_488
*2521 FILLER_28_495
*2522 FILLER_28_502
*2523 FILLER_28_509
*2524 FILLER_28_516
*2525 FILLER_28_523
*2526 FILLER_28_53
*2527 FILLER_28_530
*2528 FILLER_28_537
*2529 FILLER_28_544
*2530 FILLER_28_551
*2531 FILLER_28_558
*2532 FILLER_28_565
*2533 FILLER_28_572
*2534 FILLER_28_579
*2535 FILLER_28_586
*2536 FILLER_28_593
*2537 FILLER_28_60
*2538 FILLER_28_600
*2539 FILLER_28_607
*2540 FILLER_28_614
*2541 FILLER_28_621
*2542 FILLER_28_628
*2543 FILLER_28_635
*2544 FILLER_28_642
*2545 FILLER_28_649
*2546 FILLER_28_656
*2547 FILLER_28_663
*2548 FILLER_28_67
*2549 FILLER_28_670
*2550 FILLER_28_677
*2551 FILLER_28_684
*2552 FILLER_28_691
*2553 FILLER_28_698
*2554 FILLER_28_705
*2555 FILLER_28_712
*2556 FILLER_28_719
*2557 FILLER_28_726
*2558 FILLER_28_733
*2559 FILLER_28_74
*2560 FILLER_28_740
*2561 FILLER_28_747
*2562 FILLER_28_754
*2563 FILLER_28_761
*2564 FILLER_28_768
*2565 FILLER_28_775
*2566 FILLER_28_782
*2567 FILLER_28_789
*2568 FILLER_28_796
*2569 FILLER_28_803
*2570 FILLER_28_81
*2571 FILLER_28_810
*2572 FILLER_28_817
*2573 FILLER_28_824
*2574 FILLER_28_831
*2575 FILLER_28_838
*2576 FILLER_28_845
*2577 FILLER_28_852
*2578 FILLER_28_859
*2579 FILLER_28_866
*2580 FILLER_28_873
*2581 FILLER_28_88
*2582 FILLER_28_880
*2583 FILLER_28_887
*2584 FILLER_28_894
*2585 FILLER_28_901
*2586 FILLER_28_908
*2587 FILLER_28_915
*2588 FILLER_28_922
*2589 FILLER_28_929
*2590 FILLER_28_936
*2591 FILLER_28_943
*2592 FILLER_28_95
*2593 FILLER_28_950
*2594 FILLER_28_957
*2595 FILLER_28_964
*2596 FILLER_28_971
*2597 FILLER_28_978
*2598 FILLER_28_985
*2599 FILLER_28_992
*2600 FILLER_28_999
*2601 FILLER_29_1006
*2602 FILLER_29_1013
*2603 FILLER_29_102
*2604 FILLER_29_1020
*2605 FILLER_29_1027
*2606 FILLER_29_109
*2607 FILLER_29_11
*2608 FILLER_29_116
*2609 FILLER_29_123
*2610 FILLER_29_130
*2611 FILLER_29_137
*2612 FILLER_29_144
*2613 FILLER_29_151
*2614 FILLER_29_158
*2615 FILLER_29_165
*2616 FILLER_29_172
*2617 FILLER_29_179
*2618 FILLER_29_18
*2619 FILLER_29_25
*2620 FILLER_29_32
*2621 FILLER_29_39
*2622 FILLER_29_390
*2623 FILLER_29_397
*2624 FILLER_29_4
*2625 FILLER_29_404
*2626 FILLER_29_411
*2627 FILLER_29_418
*2628 FILLER_29_425
*2629 FILLER_29_432
*2630 FILLER_29_439
*2631 FILLER_29_446
*2632 FILLER_29_453
*2633 FILLER_29_46
*2634 FILLER_29_460
*2635 FILLER_29_467
*2636 FILLER_29_474
*2637 FILLER_29_481
*2638 FILLER_29_488
*2639 FILLER_29_495
*2640 FILLER_29_502
*2641 FILLER_29_509
*2642 FILLER_29_516
*2643 FILLER_29_523
*2644 FILLER_29_53
*2645 FILLER_29_530
*2646 FILLER_29_537
*2647 FILLER_29_544
*2648 FILLER_29_551
*2649 FILLER_29_558
*2650 FILLER_29_565
*2651 FILLER_29_572
*2652 FILLER_29_579
*2653 FILLER_29_586
*2654 FILLER_29_593
*2655 FILLER_29_60
*2656 FILLER_29_600
*2657 FILLER_29_607
*2658 FILLER_29_614
*2659 FILLER_29_621
*2660 FILLER_29_628
*2661 FILLER_29_635
*2662 FILLER_29_642
*2663 FILLER_29_649
*2664 FILLER_29_656
*2665 FILLER_29_663
*2666 FILLER_29_67
*2667 FILLER_29_670
*2668 FILLER_29_677
*2669 FILLER_29_684
*2670 FILLER_29_691
*2671 FILLER_29_698
*2672 FILLER_29_705
*2673 FILLER_29_712
*2674 FILLER_29_719
*2675 FILLER_29_726
*2676 FILLER_29_733
*2677 FILLER_29_74
*2678 FILLER_29_740
*2679 FILLER_29_747
*2680 FILLER_29_754
*2681 FILLER_29_761
*2682 FILLER_29_768
*2683 FILLER_29_775
*2684 FILLER_29_782
*2685 FILLER_29_789
*2686 FILLER_29_796
*2687 FILLER_29_803
*2688 FILLER_29_81
*2689 FILLER_29_810
*2690 FILLER_29_817
*2691 FILLER_29_824
*2692 FILLER_29_831
*2693 FILLER_29_838
*2694 FILLER_29_845
*2695 FILLER_29_852
*2696 FILLER_29_859
*2697 FILLER_29_866
*2698 FILLER_29_873
*2699 FILLER_29_88
*2700 FILLER_29_880
*2701 FILLER_29_887
*2702 FILLER_29_894
*2703 FILLER_29_901
*2704 FILLER_29_908
*2705 FILLER_29_915
*2706 FILLER_29_922
*2707 FILLER_29_929
*2708 FILLER_29_936
*2709 FILLER_29_943
*2710 FILLER_29_95
*2711 FILLER_29_950
*2712 FILLER_29_957
*2713 FILLER_29_964
*2714 FILLER_29_971
*2715 FILLER_29_978
*2716 FILLER_29_985
*2717 FILLER_29_992
*2718 FILLER_29_999
*2719 FILLER_2_1005
*2720 FILLER_2_1012
*2721 FILLER_2_1019
*2722 FILLER_2_102
*2723 FILLER_2_1026
*2724 FILLER_2_1028
*2725 FILLER_2_109
*2726 FILLER_2_11
*2727 FILLER_2_116
*2728 FILLER_2_123
*2729 FILLER_2_130
*2730 FILLER_2_137
*2731 FILLER_2_144
*2732 FILLER_2_151
*2733 FILLER_2_158
*2734 FILLER_2_165
*2735 FILLER_2_172
*2736 FILLER_2_179
*2737 FILLER_2_18
*2738 FILLER_2_186
*2739 FILLER_2_193
*2740 FILLER_2_200
*2741 FILLER_2_207
*2742 FILLER_2_214
*2743 FILLER_2_221
*2744 FILLER_2_228
*2745 FILLER_2_235
*2746 FILLER_2_242
*2747 FILLER_2_249
*2748 FILLER_2_25
*2749 FILLER_2_256
*2750 FILLER_2_263
*2751 FILLER_2_270
*2752 FILLER_2_277
*2753 FILLER_2_284
*2754 FILLER_2_291
*2755 FILLER_2_298
*2756 FILLER_2_305
*2757 FILLER_2_312
*2758 FILLER_2_319
*2759 FILLER_2_32
*2760 FILLER_2_326
*2761 FILLER_2_333
*2762 FILLER_2_340
*2763 FILLER_2_347
*2764 FILLER_2_354
*2765 FILLER_2_361
*2766 FILLER_2_368
*2767 FILLER_2_375
*2768 FILLER_2_382
*2769 FILLER_2_389
*2770 FILLER_2_39
*2771 FILLER_2_396
*2772 FILLER_2_4
*2773 FILLER_2_403
*2774 FILLER_2_410
*2775 FILLER_2_417
*2776 FILLER_2_424
*2777 FILLER_2_431
*2778 FILLER_2_438
*2779 FILLER_2_445
*2780 FILLER_2_452
*2781 FILLER_2_459
*2782 FILLER_2_46
*2783 FILLER_2_466
*2784 FILLER_2_473
*2785 FILLER_2_480
*2786 FILLER_2_487
*2787 FILLER_2_494
*2788 FILLER_2_501
*2789 FILLER_2_508
*2790 FILLER_2_515
*2791 FILLER_2_522
*2792 FILLER_2_529
*2793 FILLER_2_53
*2794 FILLER_2_536
*2795 FILLER_2_543
*2796 FILLER_2_550
*2797 FILLER_2_557
*2798 FILLER_2_564
*2799 FILLER_2_571
*2800 FILLER_2_578
*2801 FILLER_2_585
*2802 FILLER_2_592
*2803 FILLER_2_599
*2804 FILLER_2_60
*2805 FILLER_2_606
*2806 FILLER_2_613
*2807 FILLER_2_620
*2808 FILLER_2_627
*2809 FILLER_2_634
*2810 FILLER_2_641
*2811 FILLER_2_648
*2812 FILLER_2_655
*2813 FILLER_2_662
*2814 FILLER_2_669
*2815 FILLER_2_67
*2816 FILLER_2_676
*2817 FILLER_2_683
*2818 FILLER_2_690
*2819 FILLER_2_697
*2820 FILLER_2_704
*2821 FILLER_2_711
*2822 FILLER_2_718
*2823 FILLER_2_725
*2824 FILLER_2_732
*2825 FILLER_2_739
*2826 FILLER_2_74
*2827 FILLER_2_746
*2828 FILLER_2_753
*2829 FILLER_2_760
*2830 FILLER_2_767
*2831 FILLER_2_774
*2832 FILLER_2_781
*2833 FILLER_2_788
*2834 FILLER_2_795
*2835 FILLER_2_802
*2836 FILLER_2_809
*2837 FILLER_2_81
*2838 FILLER_2_816
*2839 FILLER_2_823
*2840 FILLER_2_830
*2841 FILLER_2_837
*2842 FILLER_2_844
*2843 FILLER_2_851
*2844 FILLER_2_858
*2845 FILLER_2_865
*2846 FILLER_2_872
*2847 FILLER_2_879
*2848 FILLER_2_88
*2849 FILLER_2_886
*2850 FILLER_2_893
*2851 FILLER_2_900
*2852 FILLER_2_907
*2853 FILLER_2_914
*2854 FILLER_2_921
*2855 FILLER_2_928
*2856 FILLER_2_935
*2857 FILLER_2_942
*2858 FILLER_2_949
*2859 FILLER_2_95
*2860 FILLER_2_956
*2861 FILLER_2_963
*2862 FILLER_2_970
*2863 FILLER_2_977
*2864 FILLER_2_984
*2865 FILLER_2_991
*2866 FILLER_2_998
*2867 FILLER_30_0
*2868 FILLER_30_1006
*2869 FILLER_30_1013
*2870 FILLER_30_1020
*2871 FILLER_30_1027
*2872 FILLER_30_105
*2873 FILLER_30_112
*2874 FILLER_30_119
*2875 FILLER_30_126
*2876 FILLER_30_133
*2877 FILLER_30_14
*2878 FILLER_30_140
*2879 FILLER_30_147
*2880 FILLER_30_154
*2881 FILLER_30_161
*2882 FILLER_30_168
*2883 FILLER_30_175
*2884 FILLER_30_179
*2885 FILLER_30_21
*2886 FILLER_30_28
*2887 FILLER_30_35
*2888 FILLER_30_390
*2889 FILLER_30_397
*2890 FILLER_30_404
*2891 FILLER_30_411
*2892 FILLER_30_418
*2893 FILLER_30_42
*2894 FILLER_30_425
*2895 FILLER_30_432
*2896 FILLER_30_439
*2897 FILLER_30_446
*2898 FILLER_30_453
*2899 FILLER_30_460
*2900 FILLER_30_467
*2901 FILLER_30_474
*2902 FILLER_30_481
*2903 FILLER_30_488
*2904 FILLER_30_49
*2905 FILLER_30_495
*2906 FILLER_30_502
*2907 FILLER_30_509
*2908 FILLER_30_516
*2909 FILLER_30_523
*2910 FILLER_30_530
*2911 FILLER_30_537
*2912 FILLER_30_544
*2913 FILLER_30_551
*2914 FILLER_30_558
*2915 FILLER_30_56
*2916 FILLER_30_565
*2917 FILLER_30_572
*2918 FILLER_30_579
*2919 FILLER_30_586
*2920 FILLER_30_593
*2921 FILLER_30_600
*2922 FILLER_30_607
*2923 FILLER_30_614
*2924 FILLER_30_621
*2925 FILLER_30_628
*2926 FILLER_30_63
*2927 FILLER_30_635
*2928 FILLER_30_642
*2929 FILLER_30_649
*2930 FILLER_30_656
*2931 FILLER_30_663
*2932 FILLER_30_670
*2933 FILLER_30_677
*2934 FILLER_30_684
*2935 FILLER_30_691
*2936 FILLER_30_698
*2937 FILLER_30_7
*2938 FILLER_30_70
*2939 FILLER_30_705
*2940 FILLER_30_712
*2941 FILLER_30_719
*2942 FILLER_30_726
*2943 FILLER_30_733
*2944 FILLER_30_740
*2945 FILLER_30_747
*2946 FILLER_30_754
*2947 FILLER_30_761
*2948 FILLER_30_768
*2949 FILLER_30_77
*2950 FILLER_30_775
*2951 FILLER_30_782
*2952 FILLER_30_789
*2953 FILLER_30_796
*2954 FILLER_30_803
*2955 FILLER_30_810
*2956 FILLER_30_817
*2957 FILLER_30_824
*2958 FILLER_30_831
*2959 FILLER_30_838
*2960 FILLER_30_84
*2961 FILLER_30_845
*2962 FILLER_30_852
*2963 FILLER_30_859
*2964 FILLER_30_866
*2965 FILLER_30_873
*2966 FILLER_30_880
*2967 FILLER_30_887
*2968 FILLER_30_894
*2969 FILLER_30_901
*2970 FILLER_30_908
*2971 FILLER_30_91
*2972 FILLER_30_915
*2973 FILLER_30_922
*2974 FILLER_30_929
*2975 FILLER_30_936
*2976 FILLER_30_943
*2977 FILLER_30_950
*2978 FILLER_30_957
*2979 FILLER_30_964
*2980 FILLER_30_971
*2981 FILLER_30_978
*2982 FILLER_30_98
*2983 FILLER_30_985
*2984 FILLER_30_992
*2985 FILLER_30_999
*2986 FILLER_31_0
*2987 FILLER_31_1006
*2988 FILLER_31_1013
*2989 FILLER_31_1020
*2990 FILLER_31_1027
*2991 FILLER_31_105
*2992 FILLER_31_112
*2993 FILLER_31_119
*2994 FILLER_31_126
*2995 FILLER_31_133
*2996 FILLER_31_14
*2997 FILLER_31_140
*2998 FILLER_31_147
*2999 FILLER_31_154
*3000 FILLER_31_161
*3001 FILLER_31_168
*3002 FILLER_31_175
*3003 FILLER_31_179
*3004 FILLER_31_21
*3005 FILLER_31_28
*3006 FILLER_31_35
*3007 FILLER_31_390
*3008 FILLER_31_397
*3009 FILLER_31_404
*3010 FILLER_31_411
*3011 FILLER_31_418
*3012 FILLER_31_42
*3013 FILLER_31_425
*3014 FILLER_31_432
*3015 FILLER_31_439
*3016 FILLER_31_446
*3017 FILLER_31_453
*3018 FILLER_31_460
*3019 FILLER_31_467
*3020 FILLER_31_474
*3021 FILLER_31_481
*3022 FILLER_31_488
*3023 FILLER_31_49
*3024 FILLER_31_495
*3025 FILLER_31_502
*3026 FILLER_31_509
*3027 FILLER_31_516
*3028 FILLER_31_523
*3029 FILLER_31_530
*3030 FILLER_31_537
*3031 FILLER_31_544
*3032 FILLER_31_551
*3033 FILLER_31_558
*3034 FILLER_31_56
*3035 FILLER_31_565
*3036 FILLER_31_572
*3037 FILLER_31_579
*3038 FILLER_31_586
*3039 FILLER_31_593
*3040 FILLER_31_600
*3041 FILLER_31_607
*3042 FILLER_31_614
*3043 FILLER_31_621
*3044 FILLER_31_628
*3045 FILLER_31_63
*3046 FILLER_31_635
*3047 FILLER_31_642
*3048 FILLER_31_649
*3049 FILLER_31_656
*3050 FILLER_31_663
*3051 FILLER_31_670
*3052 FILLER_31_677
*3053 FILLER_31_684
*3054 FILLER_31_691
*3055 FILLER_31_698
*3056 FILLER_31_7
*3057 FILLER_31_70
*3058 FILLER_31_705
*3059 FILLER_31_712
*3060 FILLER_31_719
*3061 FILLER_31_726
*3062 FILLER_31_733
*3063 FILLER_31_740
*3064 FILLER_31_747
*3065 FILLER_31_754
*3066 FILLER_31_761
*3067 FILLER_31_768
*3068 FILLER_31_77
*3069 FILLER_31_775
*3070 FILLER_31_782
*3071 FILLER_31_789
*3072 FILLER_31_796
*3073 FILLER_31_803
*3074 FILLER_31_810
*3075 FILLER_31_817
*3076 FILLER_31_824
*3077 FILLER_31_831
*3078 FILLER_31_838
*3079 FILLER_31_84
*3080 FILLER_31_845
*3081 FILLER_31_852
*3082 FILLER_31_859
*3083 FILLER_31_866
*3084 FILLER_31_873
*3085 FILLER_31_880
*3086 FILLER_31_887
*3087 FILLER_31_894
*3088 FILLER_31_901
*3089 FILLER_31_908
*3090 FILLER_31_91
*3091 FILLER_31_915
*3092 FILLER_31_922
*3093 FILLER_31_929
*3094 FILLER_31_936
*3095 FILLER_31_943
*3096 FILLER_31_950
*3097 FILLER_31_957
*3098 FILLER_31_964
*3099 FILLER_31_971
*3100 FILLER_31_978
*3101 FILLER_31_98
*3102 FILLER_31_985
*3103 FILLER_31_992
*3104 FILLER_31_999
*3105 FILLER_32_0
*3106 FILLER_32_1006
*3107 FILLER_32_1013
*3108 FILLER_32_1020
*3109 FILLER_32_1027
*3110 FILLER_32_105
*3111 FILLER_32_112
*3112 FILLER_32_119
*3113 FILLER_32_126
*3114 FILLER_32_133
*3115 FILLER_32_14
*3116 FILLER_32_140
*3117 FILLER_32_147
*3118 FILLER_32_154
*3119 FILLER_32_161
*3120 FILLER_32_168
*3121 FILLER_32_175
*3122 FILLER_32_179
*3123 FILLER_32_21
*3124 FILLER_32_28
*3125 FILLER_32_35
*3126 FILLER_32_390
*3127 FILLER_32_397
*3128 FILLER_32_404
*3129 FILLER_32_411
*3130 FILLER_32_418
*3131 FILLER_32_42
*3132 FILLER_32_425
*3133 FILLER_32_432
*3134 FILLER_32_439
*3135 FILLER_32_446
*3136 FILLER_32_453
*3137 FILLER_32_460
*3138 FILLER_32_467
*3139 FILLER_32_474
*3140 FILLER_32_481
*3141 FILLER_32_488
*3142 FILLER_32_49
*3143 FILLER_32_495
*3144 FILLER_32_502
*3145 FILLER_32_509
*3146 FILLER_32_516
*3147 FILLER_32_523
*3148 FILLER_32_530
*3149 FILLER_32_537
*3150 FILLER_32_544
*3151 FILLER_32_551
*3152 FILLER_32_558
*3153 FILLER_32_56
*3154 FILLER_32_565
*3155 FILLER_32_572
*3156 FILLER_32_579
*3157 FILLER_32_586
*3158 FILLER_32_593
*3159 FILLER_32_600
*3160 FILLER_32_607
*3161 FILLER_32_614
*3162 FILLER_32_621
*3163 FILLER_32_628
*3164 FILLER_32_63
*3165 FILLER_32_635
*3166 FILLER_32_642
*3167 FILLER_32_649
*3168 FILLER_32_656
*3169 FILLER_32_663
*3170 FILLER_32_670
*3171 FILLER_32_677
*3172 FILLER_32_684
*3173 FILLER_32_691
*3174 FILLER_32_698
*3175 FILLER_32_7
*3176 FILLER_32_70
*3177 FILLER_32_705
*3178 FILLER_32_712
*3179 FILLER_32_719
*3180 FILLER_32_726
*3181 FILLER_32_733
*3182 FILLER_32_740
*3183 FILLER_32_747
*3184 FILLER_32_754
*3185 FILLER_32_761
*3186 FILLER_32_768
*3187 FILLER_32_77
*3188 FILLER_32_775
*3189 FILLER_32_782
*3190 FILLER_32_789
*3191 FILLER_32_796
*3192 FILLER_32_803
*3193 FILLER_32_810
*3194 FILLER_32_817
*3195 FILLER_32_824
*3196 FILLER_32_831
*3197 FILLER_32_838
*3198 FILLER_32_84
*3199 FILLER_32_845
*3200 FILLER_32_852
*3201 FILLER_32_859
*3202 FILLER_32_866
*3203 FILLER_32_873
*3204 FILLER_32_880
*3205 FILLER_32_887
*3206 FILLER_32_894
*3207 FILLER_32_901
*3208 FILLER_32_908
*3209 FILLER_32_91
*3210 FILLER_32_915
*3211 FILLER_32_922
*3212 FILLER_32_929
*3213 FILLER_32_936
*3214 FILLER_32_943
*3215 FILLER_32_950
*3216 FILLER_32_957
*3217 FILLER_32_964
*3218 FILLER_32_971
*3219 FILLER_32_978
*3220 FILLER_32_98
*3221 FILLER_32_985
*3222 FILLER_32_992
*3223 FILLER_32_999
*3224 FILLER_33_0
*3225 FILLER_33_1006
*3226 FILLER_33_1013
*3227 FILLER_33_1020
*3228 FILLER_33_1027
*3229 FILLER_33_105
*3230 FILLER_33_112
*3231 FILLER_33_119
*3232 FILLER_33_126
*3233 FILLER_33_133
*3234 FILLER_33_14
*3235 FILLER_33_140
*3236 FILLER_33_147
*3237 FILLER_33_154
*3238 FILLER_33_161
*3239 FILLER_33_168
*3240 FILLER_33_175
*3241 FILLER_33_179
*3242 FILLER_33_21
*3243 FILLER_33_28
*3244 FILLER_33_35
*3245 FILLER_33_390
*3246 FILLER_33_397
*3247 FILLER_33_404
*3248 FILLER_33_411
*3249 FILLER_33_418
*3250 FILLER_33_42
*3251 FILLER_33_425
*3252 FILLER_33_432
*3253 FILLER_33_439
*3254 FILLER_33_446
*3255 FILLER_33_453
*3256 FILLER_33_460
*3257 FILLER_33_467
*3258 FILLER_33_474
*3259 FILLER_33_481
*3260 FILLER_33_488
*3261 FILLER_33_49
*3262 FILLER_33_495
*3263 FILLER_33_502
*3264 FILLER_33_509
*3265 FILLER_33_516
*3266 FILLER_33_523
*3267 FILLER_33_530
*3268 FILLER_33_537
*3269 FILLER_33_544
*3270 FILLER_33_551
*3271 FILLER_33_558
*3272 FILLER_33_56
*3273 FILLER_33_565
*3274 FILLER_33_572
*3275 FILLER_33_579
*3276 FILLER_33_586
*3277 FILLER_33_593
*3278 FILLER_33_600
*3279 FILLER_33_607
*3280 FILLER_33_614
*3281 FILLER_33_621
*3282 FILLER_33_628
*3283 FILLER_33_63
*3284 FILLER_33_635
*3285 FILLER_33_642
*3286 FILLER_33_649
*3287 FILLER_33_656
*3288 FILLER_33_663
*3289 FILLER_33_670
*3290 FILLER_33_677
*3291 FILLER_33_684
*3292 FILLER_33_691
*3293 FILLER_33_698
*3294 FILLER_33_7
*3295 FILLER_33_70
*3296 FILLER_33_705
*3297 FILLER_33_712
*3298 FILLER_33_719
*3299 FILLER_33_726
*3300 FILLER_33_733
*3301 FILLER_33_740
*3302 FILLER_33_747
*3303 FILLER_33_754
*3304 FILLER_33_761
*3305 FILLER_33_768
*3306 FILLER_33_77
*3307 FILLER_33_775
*3308 FILLER_33_782
*3309 FILLER_33_789
*3310 FILLER_33_796
*3311 FILLER_33_803
*3312 FILLER_33_810
*3313 FILLER_33_817
*3314 FILLER_33_824
*3315 FILLER_33_831
*3316 FILLER_33_838
*3317 FILLER_33_84
*3318 FILLER_33_845
*3319 FILLER_33_852
*3320 FILLER_33_859
*3321 FILLER_33_866
*3322 FILLER_33_873
*3323 FILLER_33_880
*3324 FILLER_33_887
*3325 FILLER_33_894
*3326 FILLER_33_901
*3327 FILLER_33_908
*3328 FILLER_33_91
*3329 FILLER_33_915
*3330 FILLER_33_922
*3331 FILLER_33_929
*3332 FILLER_33_936
*3333 FILLER_33_943
*3334 FILLER_33_950
*3335 FILLER_33_957
*3336 FILLER_33_964
*3337 FILLER_33_971
*3338 FILLER_33_978
*3339 FILLER_33_98
*3340 FILLER_33_985
*3341 FILLER_33_992
*3342 FILLER_33_999
*3343 FILLER_34_0
*3344 FILLER_34_1006
*3345 FILLER_34_1013
*3346 FILLER_34_1020
*3347 FILLER_34_1027
*3348 FILLER_34_105
*3349 FILLER_34_112
*3350 FILLER_34_119
*3351 FILLER_34_126
*3352 FILLER_34_133
*3353 FILLER_34_14
*3354 FILLER_34_140
*3355 FILLER_34_147
*3356 FILLER_34_154
*3357 FILLER_34_161
*3358 FILLER_34_168
*3359 FILLER_34_175
*3360 FILLER_34_179
*3361 FILLER_34_21
*3362 FILLER_34_28
*3363 FILLER_34_35
*3364 FILLER_34_390
*3365 FILLER_34_397
*3366 FILLER_34_404
*3367 FILLER_34_411
*3368 FILLER_34_418
*3369 FILLER_34_42
*3370 FILLER_34_425
*3371 FILLER_34_432
*3372 FILLER_34_439
*3373 FILLER_34_446
*3374 FILLER_34_453
*3375 FILLER_34_460
*3376 FILLER_34_467
*3377 FILLER_34_474
*3378 FILLER_34_481
*3379 FILLER_34_488
*3380 FILLER_34_49
*3381 FILLER_34_495
*3382 FILLER_34_502
*3383 FILLER_34_509
*3384 FILLER_34_516
*3385 FILLER_34_523
*3386 FILLER_34_530
*3387 FILLER_34_537
*3388 FILLER_34_544
*3389 FILLER_34_551
*3390 FILLER_34_558
*3391 FILLER_34_56
*3392 FILLER_34_565
*3393 FILLER_34_572
*3394 FILLER_34_579
*3395 FILLER_34_586
*3396 FILLER_34_593
*3397 FILLER_34_600
*3398 FILLER_34_607
*3399 FILLER_34_614
*3400 FILLER_34_621
*3401 FILLER_34_628
*3402 FILLER_34_63
*3403 FILLER_34_635
*3404 FILLER_34_642
*3405 FILLER_34_649
*3406 FILLER_34_656
*3407 FILLER_34_663
*3408 FILLER_34_670
*3409 FILLER_34_677
*3410 FILLER_34_684
*3411 FILLER_34_691
*3412 FILLER_34_698
*3413 FILLER_34_7
*3414 FILLER_34_70
*3415 FILLER_34_705
*3416 FILLER_34_712
*3417 FILLER_34_719
*3418 FILLER_34_726
*3419 FILLER_34_733
*3420 FILLER_34_740
*3421 FILLER_34_747
*3422 FILLER_34_754
*3423 FILLER_34_761
*3424 FILLER_34_768
*3425 FILLER_34_77
*3426 FILLER_34_775
*3427 FILLER_34_782
*3428 FILLER_34_789
*3429 FILLER_34_796
*3430 FILLER_34_803
*3431 FILLER_34_810
*3432 FILLER_34_817
*3433 FILLER_34_824
*3434 FILLER_34_831
*3435 FILLER_34_838
*3436 FILLER_34_84
*3437 FILLER_34_845
*3438 FILLER_34_852
*3439 FILLER_34_859
*3440 FILLER_34_866
*3441 FILLER_34_873
*3442 FILLER_34_880
*3443 FILLER_34_887
*3444 FILLER_34_894
*3445 FILLER_34_901
*3446 FILLER_34_908
*3447 FILLER_34_91
*3448 FILLER_34_915
*3449 FILLER_34_922
*3450 FILLER_34_929
*3451 FILLER_34_936
*3452 FILLER_34_943
*3453 FILLER_34_950
*3454 FILLER_34_957
*3455 FILLER_34_964
*3456 FILLER_34_971
*3457 FILLER_34_978
*3458 FILLER_34_98
*3459 FILLER_34_985
*3460 FILLER_34_992
*3461 FILLER_34_999
*3462 FILLER_35_0
*3463 FILLER_35_1006
*3464 FILLER_35_1013
*3465 FILLER_35_1020
*3466 FILLER_35_1027
*3467 FILLER_35_105
*3468 FILLER_35_112
*3469 FILLER_35_119
*3470 FILLER_35_126
*3471 FILLER_35_133
*3472 FILLER_35_14
*3473 FILLER_35_140
*3474 FILLER_35_147
*3475 FILLER_35_154
*3476 FILLER_35_161
*3477 FILLER_35_168
*3478 FILLER_35_175
*3479 FILLER_35_179
*3480 FILLER_35_21
*3481 FILLER_35_28
*3482 FILLER_35_35
*3483 FILLER_35_390
*3484 FILLER_35_397
*3485 FILLER_35_404
*3486 FILLER_35_411
*3487 FILLER_35_418
*3488 FILLER_35_42
*3489 FILLER_35_425
*3490 FILLER_35_432
*3491 FILLER_35_439
*3492 FILLER_35_446
*3493 FILLER_35_453
*3494 FILLER_35_460
*3495 FILLER_35_467
*3496 FILLER_35_474
*3497 FILLER_35_481
*3498 FILLER_35_488
*3499 FILLER_35_49
*3500 FILLER_35_495
*3501 FILLER_35_502
*3502 FILLER_35_509
*3503 FILLER_35_516
*3504 FILLER_35_523
*3505 FILLER_35_530
*3506 FILLER_35_537
*3507 FILLER_35_544
*3508 FILLER_35_551
*3509 FILLER_35_558
*3510 FILLER_35_56
*3511 FILLER_35_565
*3512 FILLER_35_572
*3513 FILLER_35_579
*3514 FILLER_35_586
*3515 FILLER_35_593
*3516 FILLER_35_600
*3517 FILLER_35_607
*3518 FILLER_35_614
*3519 FILLER_35_621
*3520 FILLER_35_628
*3521 FILLER_35_63
*3522 FILLER_35_635
*3523 FILLER_35_642
*3524 FILLER_35_649
*3525 FILLER_35_656
*3526 FILLER_35_663
*3527 FILLER_35_670
*3528 FILLER_35_677
*3529 FILLER_35_684
*3530 FILLER_35_691
*3531 FILLER_35_698
*3532 FILLER_35_7
*3533 FILLER_35_70
*3534 FILLER_35_705
*3535 FILLER_35_712
*3536 FILLER_35_719
*3537 FILLER_35_726
*3538 FILLER_35_733
*3539 FILLER_35_740
*3540 FILLER_35_747
*3541 FILLER_35_754
*3542 FILLER_35_761
*3543 FILLER_35_768
*3544 FILLER_35_77
*3545 FILLER_35_775
*3546 FILLER_35_782
*3547 FILLER_35_789
*3548 FILLER_35_796
*3549 FILLER_35_803
*3550 FILLER_35_810
*3551 FILLER_35_817
*3552 FILLER_35_824
*3553 FILLER_35_831
*3554 FILLER_35_838
*3555 FILLER_35_84
*3556 FILLER_35_845
*3557 FILLER_35_852
*3558 FILLER_35_859
*3559 FILLER_35_866
*3560 FILLER_35_873
*3561 FILLER_35_880
*3562 FILLER_35_887
*3563 FILLER_35_894
*3564 FILLER_35_901
*3565 FILLER_35_908
*3566 FILLER_35_91
*3567 FILLER_35_915
*3568 FILLER_35_922
*3569 FILLER_35_929
*3570 FILLER_35_936
*3571 FILLER_35_943
*3572 FILLER_35_950
*3573 FILLER_35_957
*3574 FILLER_35_964
*3575 FILLER_35_971
*3576 FILLER_35_978
*3577 FILLER_35_98
*3578 FILLER_35_985
*3579 FILLER_35_992
*3580 FILLER_35_999
*3581 FILLER_36_0
*3582 FILLER_36_1006
*3583 FILLER_36_1013
*3584 FILLER_36_1020
*3585 FILLER_36_1027
*3586 FILLER_36_105
*3587 FILLER_36_112
*3588 FILLER_36_119
*3589 FILLER_36_126
*3590 FILLER_36_133
*3591 FILLER_36_14
*3592 FILLER_36_140
*3593 FILLER_36_147
*3594 FILLER_36_154
*3595 FILLER_36_161
*3596 FILLER_36_168
*3597 FILLER_36_175
*3598 FILLER_36_179
*3599 FILLER_36_21
*3600 FILLER_36_28
*3601 FILLER_36_35
*3602 FILLER_36_390
*3603 FILLER_36_397
*3604 FILLER_36_404
*3605 FILLER_36_411
*3606 FILLER_36_418
*3607 FILLER_36_42
*3608 FILLER_36_425
*3609 FILLER_36_432
*3610 FILLER_36_439
*3611 FILLER_36_446
*3612 FILLER_36_453
*3613 FILLER_36_460
*3614 FILLER_36_467
*3615 FILLER_36_474
*3616 FILLER_36_481
*3617 FILLER_36_488
*3618 FILLER_36_49
*3619 FILLER_36_495
*3620 FILLER_36_502
*3621 FILLER_36_509
*3622 FILLER_36_516
*3623 FILLER_36_523
*3624 FILLER_36_530
*3625 FILLER_36_537
*3626 FILLER_36_544
*3627 FILLER_36_551
*3628 FILLER_36_558
*3629 FILLER_36_56
*3630 FILLER_36_565
*3631 FILLER_36_572
*3632 FILLER_36_579
*3633 FILLER_36_586
*3634 FILLER_36_593
*3635 FILLER_36_600
*3636 FILLER_36_607
*3637 FILLER_36_614
*3638 FILLER_36_621
*3639 FILLER_36_628
*3640 FILLER_36_63
*3641 FILLER_36_635
*3642 FILLER_36_642
*3643 FILLER_36_649
*3644 FILLER_36_656
*3645 FILLER_36_663
*3646 FILLER_36_670
*3647 FILLER_36_677
*3648 FILLER_36_684
*3649 FILLER_36_691
*3650 FILLER_36_698
*3651 FILLER_36_7
*3652 FILLER_36_70
*3653 FILLER_36_705
*3654 FILLER_36_712
*3655 FILLER_36_719
*3656 FILLER_36_726
*3657 FILLER_36_733
*3658 FILLER_36_740
*3659 FILLER_36_747
*3660 FILLER_36_754
*3661 FILLER_36_761
*3662 FILLER_36_768
*3663 FILLER_36_77
*3664 FILLER_36_775
*3665 FILLER_36_782
*3666 FILLER_36_789
*3667 FILLER_36_796
*3668 FILLER_36_803
*3669 FILLER_36_810
*3670 FILLER_36_817
*3671 FILLER_36_824
*3672 FILLER_36_831
*3673 FILLER_36_838
*3674 FILLER_36_84
*3675 FILLER_36_845
*3676 FILLER_36_852
*3677 FILLER_36_859
*3678 FILLER_36_866
*3679 FILLER_36_873
*3680 FILLER_36_880
*3681 FILLER_36_887
*3682 FILLER_36_894
*3683 FILLER_36_901
*3684 FILLER_36_908
*3685 FILLER_36_91
*3686 FILLER_36_915
*3687 FILLER_36_922
*3688 FILLER_36_929
*3689 FILLER_36_936
*3690 FILLER_36_943
*3691 FILLER_36_950
*3692 FILLER_36_957
*3693 FILLER_36_964
*3694 FILLER_36_971
*3695 FILLER_36_978
*3696 FILLER_36_98
*3697 FILLER_36_985
*3698 FILLER_36_992
*3699 FILLER_36_999
*3700 FILLER_37_0
*3701 FILLER_37_1001
*3702 FILLER_37_1008
*3703 FILLER_37_1015
*3704 FILLER_37_1022
*3705 FILLER_37_105
*3706 FILLER_37_112
*3707 FILLER_37_119
*3708 FILLER_37_126
*3709 FILLER_37_133
*3710 FILLER_37_14
*3711 FILLER_37_140
*3712 FILLER_37_147
*3713 FILLER_37_154
*3714 FILLER_37_161
*3715 FILLER_37_168
*3716 FILLER_37_175
*3717 FILLER_37_182
*3718 FILLER_37_189
*3719 FILLER_37_196
*3720 FILLER_37_203
*3721 FILLER_37_21
*3722 FILLER_37_210
*3723 FILLER_37_217
*3724 FILLER_37_224
*3725 FILLER_37_231
*3726 FILLER_37_238
*3727 FILLER_37_245
*3728 FILLER_37_252
*3729 FILLER_37_259
*3730 FILLER_37_266
*3731 FILLER_37_273
*3732 FILLER_37_28
*3733 FILLER_37_280
*3734 FILLER_37_287
*3735 FILLER_37_294
*3736 FILLER_37_301
*3737 FILLER_37_308
*3738 FILLER_37_315
*3739 FILLER_37_322
*3740 FILLER_37_329
*3741 FILLER_37_336
*3742 FILLER_37_343
*3743 FILLER_37_35
*3744 FILLER_37_350
*3745 FILLER_37_357
*3746 FILLER_37_364
*3747 FILLER_37_371
*3748 FILLER_37_378
*3749 FILLER_37_385
*3750 FILLER_37_392
*3751 FILLER_37_399
*3752 FILLER_37_406
*3753 FILLER_37_413
*3754 FILLER_37_42
*3755 FILLER_37_420
*3756 FILLER_37_427
*3757 FILLER_37_434
*3758 FILLER_37_441
*3759 FILLER_37_448
*3760 FILLER_37_455
*3761 FILLER_37_462
*3762 FILLER_37_469
*3763 FILLER_37_476
*3764 FILLER_37_483
*3765 FILLER_37_49
*3766 FILLER_37_490
*3767 FILLER_37_497
*3768 FILLER_37_504
*3769 FILLER_37_511
*3770 FILLER_37_518
*3771 FILLER_37_525
*3772 FILLER_37_532
*3773 FILLER_37_539
*3774 FILLER_37_546
*3775 FILLER_37_553
*3776 FILLER_37_56
*3777 FILLER_37_560
*3778 FILLER_37_567
*3779 FILLER_37_574
*3780 FILLER_37_581
*3781 FILLER_37_588
*3782 FILLER_37_595
*3783 FILLER_37_602
*3784 FILLER_37_609
*3785 FILLER_37_616
*3786 FILLER_37_623
*3787 FILLER_37_63
*3788 FILLER_37_630
*3789 FILLER_37_637
*3790 FILLER_37_644
*3791 FILLER_37_651
*3792 FILLER_37_658
*3793 FILLER_37_665
*3794 FILLER_37_672
*3795 FILLER_37_679
*3796 FILLER_37_686
*3797 FILLER_37_693
*3798 FILLER_37_7
*3799 FILLER_37_70
*3800 FILLER_37_700
*3801 FILLER_37_707
*3802 FILLER_37_714
*3803 FILLER_37_721
*3804 FILLER_37_728
*3805 FILLER_37_735
*3806 FILLER_37_742
*3807 FILLER_37_749
*3808 FILLER_37_756
*3809 FILLER_37_763
*3810 FILLER_37_77
*3811 FILLER_37_770
*3812 FILLER_37_777
*3813 FILLER_37_784
*3814 FILLER_37_791
*3815 FILLER_37_798
*3816 FILLER_37_805
*3817 FILLER_37_812
*3818 FILLER_37_819
*3819 FILLER_37_826
*3820 FILLER_37_833
*3821 FILLER_37_84
*3822 FILLER_37_840
*3823 FILLER_37_847
*3824 FILLER_37_854
*3825 FILLER_37_861
*3826 FILLER_37_868
*3827 FILLER_37_875
*3828 FILLER_37_882
*3829 FILLER_37_889
*3830 FILLER_37_896
*3831 FILLER_37_903
*3832 FILLER_37_91
*3833 FILLER_37_910
*3834 FILLER_37_917
*3835 FILLER_37_924
*3836 FILLER_37_931
*3837 FILLER_37_938
*3838 FILLER_37_945
*3839 FILLER_37_952
*3840 FILLER_37_959
*3841 FILLER_37_966
*3842 FILLER_37_973
*3843 FILLER_37_98
*3844 FILLER_37_980
*3845 FILLER_37_987
*3846 FILLER_37_994
*3847 FILLER_38_0
*3848 FILLER_38_1001
*3849 FILLER_38_1008
*3850 FILLER_38_1015
*3851 FILLER_38_1022
*3852 FILLER_38_105
*3853 FILLER_38_112
*3854 FILLER_38_119
*3855 FILLER_38_126
*3856 FILLER_38_133
*3857 FILLER_38_14
*3858 FILLER_38_140
*3859 FILLER_38_147
*3860 FILLER_38_154
*3861 FILLER_38_161
*3862 FILLER_38_168
*3863 FILLER_38_175
*3864 FILLER_38_182
*3865 FILLER_38_189
*3866 FILLER_38_196
*3867 FILLER_38_203
*3868 FILLER_38_21
*3869 FILLER_38_210
*3870 FILLER_38_217
*3871 FILLER_38_224
*3872 FILLER_38_231
*3873 FILLER_38_238
*3874 FILLER_38_245
*3875 FILLER_38_252
*3876 FILLER_38_259
*3877 FILLER_38_266
*3878 FILLER_38_273
*3879 FILLER_38_28
*3880 FILLER_38_280
*3881 FILLER_38_287
*3882 FILLER_38_294
*3883 FILLER_38_301
*3884 FILLER_38_308
*3885 FILLER_38_315
*3886 FILLER_38_322
*3887 FILLER_38_329
*3888 FILLER_38_336
*3889 FILLER_38_343
*3890 FILLER_38_35
*3891 FILLER_38_350
*3892 FILLER_38_357
*3893 FILLER_38_364
*3894 FILLER_38_371
*3895 FILLER_38_378
*3896 FILLER_38_385
*3897 FILLER_38_392
*3898 FILLER_38_399
*3899 FILLER_38_406
*3900 FILLER_38_413
*3901 FILLER_38_42
*3902 FILLER_38_420
*3903 FILLER_38_427
*3904 FILLER_38_434
*3905 FILLER_38_441
*3906 FILLER_38_448
*3907 FILLER_38_455
*3908 FILLER_38_462
*3909 FILLER_38_469
*3910 FILLER_38_476
*3911 FILLER_38_483
*3912 FILLER_38_49
*3913 FILLER_38_490
*3914 FILLER_38_497
*3915 FILLER_38_504
*3916 FILLER_38_511
*3917 FILLER_38_518
*3918 FILLER_38_525
*3919 FILLER_38_532
*3920 FILLER_38_539
*3921 FILLER_38_546
*3922 FILLER_38_553
*3923 FILLER_38_56
*3924 FILLER_38_560
*3925 FILLER_38_567
*3926 FILLER_38_574
*3927 FILLER_38_581
*3928 FILLER_38_588
*3929 FILLER_38_595
*3930 FILLER_38_602
*3931 FILLER_38_609
*3932 FILLER_38_616
*3933 FILLER_38_623
*3934 FILLER_38_63
*3935 FILLER_38_630
*3936 FILLER_38_637
*3937 FILLER_38_644
*3938 FILLER_38_651
*3939 FILLER_38_658
*3940 FILLER_38_665
*3941 FILLER_38_672
*3942 FILLER_38_679
*3943 FILLER_38_686
*3944 FILLER_38_693
*3945 FILLER_38_7
*3946 FILLER_38_70
*3947 FILLER_38_700
*3948 FILLER_38_707
*3949 FILLER_38_714
*3950 FILLER_38_721
*3951 FILLER_38_728
*3952 FILLER_38_735
*3953 FILLER_38_742
*3954 FILLER_38_749
*3955 FILLER_38_756
*3956 FILLER_38_763
*3957 FILLER_38_77
*3958 FILLER_38_770
*3959 FILLER_38_777
*3960 FILLER_38_784
*3961 FILLER_38_791
*3962 FILLER_38_798
*3963 FILLER_38_805
*3964 FILLER_38_812
*3965 FILLER_38_819
*3966 FILLER_38_826
*3967 FILLER_38_833
*3968 FILLER_38_84
*3969 FILLER_38_840
*3970 FILLER_38_847
*3971 FILLER_38_854
*3972 FILLER_38_861
*3973 FILLER_38_868
*3974 FILLER_38_875
*3975 FILLER_38_882
*3976 FILLER_38_889
*3977 FILLER_38_896
*3978 FILLER_38_903
*3979 FILLER_38_91
*3980 FILLER_38_910
*3981 FILLER_38_917
*3982 FILLER_38_924
*3983 FILLER_38_931
*3984 FILLER_38_938
*3985 FILLER_38_945
*3986 FILLER_38_952
*3987 FILLER_38_959
*3988 FILLER_38_966
*3989 FILLER_38_973
*3990 FILLER_38_98
*3991 FILLER_38_980
*3992 FILLER_38_987
*3993 FILLER_38_994
*3994 FILLER_39_0
*3995 FILLER_39_1001
*3996 FILLER_39_1008
*3997 FILLER_39_1015
*3998 FILLER_39_1022
*3999 FILLER_39_105
*4000 FILLER_39_112
*4001 FILLER_39_119
*4002 FILLER_39_126
*4003 FILLER_39_133
*4004 FILLER_39_14
*4005 FILLER_39_140
*4006 FILLER_39_147
*4007 FILLER_39_154
*4008 FILLER_39_161
*4009 FILLER_39_168
*4010 FILLER_39_175
*4011 FILLER_39_182
*4012 FILLER_39_189
*4013 FILLER_39_196
*4014 FILLER_39_203
*4015 FILLER_39_21
*4016 FILLER_39_210
*4017 FILLER_39_217
*4018 FILLER_39_224
*4019 FILLER_39_231
*4020 FILLER_39_238
*4021 FILLER_39_245
*4022 FILLER_39_252
*4023 FILLER_39_259
*4024 FILLER_39_266
*4025 FILLER_39_273
*4026 FILLER_39_28
*4027 FILLER_39_280
*4028 FILLER_39_287
*4029 FILLER_39_294
*4030 FILLER_39_301
*4031 FILLER_39_308
*4032 FILLER_39_315
*4033 FILLER_39_322
*4034 FILLER_39_329
*4035 FILLER_39_336
*4036 FILLER_39_343
*4037 FILLER_39_35
*4038 FILLER_39_350
*4039 FILLER_39_357
*4040 FILLER_39_364
*4041 FILLER_39_371
*4042 FILLER_39_378
*4043 FILLER_39_385
*4044 FILLER_39_392
*4045 FILLER_39_399
*4046 FILLER_39_406
*4047 FILLER_39_413
*4048 FILLER_39_42
*4049 FILLER_39_420
*4050 FILLER_39_427
*4051 FILLER_39_434
*4052 FILLER_39_441
*4053 FILLER_39_448
*4054 FILLER_39_455
*4055 FILLER_39_462
*4056 FILLER_39_469
*4057 FILLER_39_476
*4058 FILLER_39_483
*4059 FILLER_39_49
*4060 FILLER_39_490
*4061 FILLER_39_497
*4062 FILLER_39_504
*4063 FILLER_39_511
*4064 FILLER_39_518
*4065 FILLER_39_525
*4066 FILLER_39_532
*4067 FILLER_39_539
*4068 FILLER_39_546
*4069 FILLER_39_553
*4070 FILLER_39_56
*4071 FILLER_39_560
*4072 FILLER_39_567
*4073 FILLER_39_574
*4074 FILLER_39_581
*4075 FILLER_39_588
*4076 FILLER_39_595
*4077 FILLER_39_602
*4078 FILLER_39_609
*4079 FILLER_39_616
*4080 FILLER_39_623
*4081 FILLER_39_63
*4082 FILLER_39_630
*4083 FILLER_39_637
*4084 FILLER_39_644
*4085 FILLER_39_651
*4086 FILLER_39_658
*4087 FILLER_39_665
*4088 FILLER_39_672
*4089 FILLER_39_679
*4090 FILLER_39_686
*4091 FILLER_39_693
*4092 FILLER_39_7
*4093 FILLER_39_70
*4094 FILLER_39_700
*4095 FILLER_39_707
*4096 FILLER_39_714
*4097 FILLER_39_721
*4098 FILLER_39_728
*4099 FILLER_39_735
*4100 FILLER_39_742
*4101 FILLER_39_749
*4102 FILLER_39_756
*4103 FILLER_39_763
*4104 FILLER_39_77
*4105 FILLER_39_770
*4106 FILLER_39_777
*4107 FILLER_39_784
*4108 FILLER_39_791
*4109 FILLER_39_798
*4110 FILLER_39_805
*4111 FILLER_39_812
*4112 FILLER_39_819
*4113 FILLER_39_826
*4114 FILLER_39_833
*4115 FILLER_39_84
*4116 FILLER_39_840
*4117 FILLER_39_847
*4118 FILLER_39_854
*4119 FILLER_39_861
*4120 FILLER_39_868
*4121 FILLER_39_875
*4122 FILLER_39_882
*4123 FILLER_39_889
*4124 FILLER_39_896
*4125 FILLER_39_903
*4126 FILLER_39_91
*4127 FILLER_39_910
*4128 FILLER_39_917
*4129 FILLER_39_924
*4130 FILLER_39_931
*4131 FILLER_39_938
*4132 FILLER_39_945
*4133 FILLER_39_952
*4134 FILLER_39_959
*4135 FILLER_39_966
*4136 FILLER_39_973
*4137 FILLER_39_98
*4138 FILLER_39_980
*4139 FILLER_39_987
*4140 FILLER_39_994
*4141 FILLER_3_1005
*4142 FILLER_3_1012
*4143 FILLER_3_1019
*4144 FILLER_3_102
*4145 FILLER_3_1026
*4146 FILLER_3_1028
*4147 FILLER_3_109
*4148 FILLER_3_11
*4149 FILLER_3_116
*4150 FILLER_3_123
*4151 FILLER_3_130
*4152 FILLER_3_137
*4153 FILLER_3_144
*4154 FILLER_3_151
*4155 FILLER_3_158
*4156 FILLER_3_165
*4157 FILLER_3_172
*4158 FILLER_3_179
*4159 FILLER_3_18
*4160 FILLER_3_186
*4161 FILLER_3_193
*4162 FILLER_3_200
*4163 FILLER_3_207
*4164 FILLER_3_214
*4165 FILLER_3_221
*4166 FILLER_3_228
*4167 FILLER_3_235
*4168 FILLER_3_242
*4169 FILLER_3_249
*4170 FILLER_3_25
*4171 FILLER_3_256
*4172 FILLER_3_263
*4173 FILLER_3_270
*4174 FILLER_3_277
*4175 FILLER_3_284
*4176 FILLER_3_291
*4177 FILLER_3_298
*4178 FILLER_3_305
*4179 FILLER_3_312
*4180 FILLER_3_319
*4181 FILLER_3_32
*4182 FILLER_3_326
*4183 FILLER_3_333
*4184 FILLER_3_340
*4185 FILLER_3_347
*4186 FILLER_3_354
*4187 FILLER_3_361
*4188 FILLER_3_368
*4189 FILLER_3_375
*4190 FILLER_3_382
*4191 FILLER_3_389
*4192 FILLER_3_39
*4193 FILLER_3_396
*4194 FILLER_3_4
*4195 FILLER_3_403
*4196 FILLER_3_410
*4197 FILLER_3_417
*4198 FILLER_3_424
*4199 FILLER_3_431
*4200 FILLER_3_438
*4201 FILLER_3_445
*4202 FILLER_3_452
*4203 FILLER_3_459
*4204 FILLER_3_46
*4205 FILLER_3_466
*4206 FILLER_3_473
*4207 FILLER_3_480
*4208 FILLER_3_487
*4209 FILLER_3_494
*4210 FILLER_3_501
*4211 FILLER_3_508
*4212 FILLER_3_515
*4213 FILLER_3_522
*4214 FILLER_3_529
*4215 FILLER_3_53
*4216 FILLER_3_536
*4217 FILLER_3_543
*4218 FILLER_3_550
*4219 FILLER_3_557
*4220 FILLER_3_564
*4221 FILLER_3_571
*4222 FILLER_3_578
*4223 FILLER_3_585
*4224 FILLER_3_592
*4225 FILLER_3_599
*4226 FILLER_3_60
*4227 FILLER_3_606
*4228 FILLER_3_613
*4229 FILLER_3_620
*4230 FILLER_3_627
*4231 FILLER_3_634
*4232 FILLER_3_641
*4233 FILLER_3_648
*4234 FILLER_3_655
*4235 FILLER_3_662
*4236 FILLER_3_669
*4237 FILLER_3_67
*4238 FILLER_3_676
*4239 FILLER_3_683
*4240 FILLER_3_690
*4241 FILLER_3_697
*4242 FILLER_3_704
*4243 FILLER_3_711
*4244 FILLER_3_718
*4245 FILLER_3_725
*4246 FILLER_3_732
*4247 FILLER_3_739
*4248 FILLER_3_74
*4249 FILLER_3_746
*4250 FILLER_3_753
*4251 FILLER_3_760
*4252 FILLER_3_767
*4253 FILLER_3_774
*4254 FILLER_3_781
*4255 FILLER_3_788
*4256 FILLER_3_795
*4257 FILLER_3_802
*4258 FILLER_3_809
*4259 FILLER_3_81
*4260 FILLER_3_816
*4261 FILLER_3_823
*4262 FILLER_3_830
*4263 FILLER_3_837
*4264 FILLER_3_844
*4265 FILLER_3_851
*4266 FILLER_3_858
*4267 FILLER_3_865
*4268 FILLER_3_872
*4269 FILLER_3_879
*4270 FILLER_3_88
*4271 FILLER_3_886
*4272 FILLER_3_893
*4273 FILLER_3_900
*4274 FILLER_3_907
*4275 FILLER_3_914
*4276 FILLER_3_921
*4277 FILLER_3_928
*4278 FILLER_3_935
*4279 FILLER_3_942
*4280 FILLER_3_949
*4281 FILLER_3_95
*4282 FILLER_3_956
*4283 FILLER_3_963
*4284 FILLER_3_970
*4285 FILLER_3_977
*4286 FILLER_3_984
*4287 FILLER_3_991
*4288 FILLER_3_998
*4289 FILLER_40_0
*4290 FILLER_40_1001
*4291 FILLER_40_1008
*4292 FILLER_40_1015
*4293 FILLER_40_1022
*4294 FILLER_40_105
*4295 FILLER_40_112
*4296 FILLER_40_119
*4297 FILLER_40_126
*4298 FILLER_40_133
*4299 FILLER_40_14
*4300 FILLER_40_140
*4301 FILLER_40_147
*4302 FILLER_40_154
*4303 FILLER_40_161
*4304 FILLER_40_168
*4305 FILLER_40_175
*4306 FILLER_40_182
*4307 FILLER_40_189
*4308 FILLER_40_196
*4309 FILLER_40_203
*4310 FILLER_40_21
*4311 FILLER_40_210
*4312 FILLER_40_217
*4313 FILLER_40_224
*4314 FILLER_40_231
*4315 FILLER_40_238
*4316 FILLER_40_245
*4317 FILLER_40_252
*4318 FILLER_40_259
*4319 FILLER_40_266
*4320 FILLER_40_273
*4321 FILLER_40_28
*4322 FILLER_40_280
*4323 FILLER_40_287
*4324 FILLER_40_294
*4325 FILLER_40_301
*4326 FILLER_40_308
*4327 FILLER_40_315
*4328 FILLER_40_322
*4329 FILLER_40_329
*4330 FILLER_40_336
*4331 FILLER_40_343
*4332 FILLER_40_35
*4333 FILLER_40_350
*4334 FILLER_40_357
*4335 FILLER_40_364
*4336 FILLER_40_371
*4337 FILLER_40_378
*4338 FILLER_40_385
*4339 FILLER_40_392
*4340 FILLER_40_399
*4341 FILLER_40_406
*4342 FILLER_40_413
*4343 FILLER_40_42
*4344 FILLER_40_420
*4345 FILLER_40_427
*4346 FILLER_40_434
*4347 FILLER_40_441
*4348 FILLER_40_448
*4349 FILLER_40_455
*4350 FILLER_40_462
*4351 FILLER_40_469
*4352 FILLER_40_476
*4353 FILLER_40_483
*4354 FILLER_40_49
*4355 FILLER_40_490
*4356 FILLER_40_497
*4357 FILLER_40_504
*4358 FILLER_40_511
*4359 FILLER_40_518
*4360 FILLER_40_525
*4361 FILLER_40_532
*4362 FILLER_40_539
*4363 FILLER_40_546
*4364 FILLER_40_553
*4365 FILLER_40_56
*4366 FILLER_40_560
*4367 FILLER_40_567
*4368 FILLER_40_574
*4369 FILLER_40_581
*4370 FILLER_40_588
*4371 FILLER_40_595
*4372 FILLER_40_602
*4373 FILLER_40_609
*4374 FILLER_40_616
*4375 FILLER_40_623
*4376 FILLER_40_63
*4377 FILLER_40_630
*4378 FILLER_40_637
*4379 FILLER_40_644
*4380 FILLER_40_651
*4381 FILLER_40_658
*4382 FILLER_40_665
*4383 FILLER_40_672
*4384 FILLER_40_679
*4385 FILLER_40_686
*4386 FILLER_40_693
*4387 FILLER_40_7
*4388 FILLER_40_70
*4389 FILLER_40_700
*4390 FILLER_40_707
*4391 FILLER_40_714
*4392 FILLER_40_721
*4393 FILLER_40_728
*4394 FILLER_40_735
*4395 FILLER_40_742
*4396 FILLER_40_749
*4397 FILLER_40_756
*4398 FILLER_40_763
*4399 FILLER_40_77
*4400 FILLER_40_770
*4401 FILLER_40_777
*4402 FILLER_40_784
*4403 FILLER_40_791
*4404 FILLER_40_798
*4405 FILLER_40_805
*4406 FILLER_40_812
*4407 FILLER_40_819
*4408 FILLER_40_826
*4409 FILLER_40_833
*4410 FILLER_40_84
*4411 FILLER_40_840
*4412 FILLER_40_847
*4413 FILLER_40_854
*4414 FILLER_40_861
*4415 FILLER_40_868
*4416 FILLER_40_875
*4417 FILLER_40_882
*4418 FILLER_40_889
*4419 FILLER_40_896
*4420 FILLER_40_903
*4421 FILLER_40_91
*4422 FILLER_40_910
*4423 FILLER_40_917
*4424 FILLER_40_924
*4425 FILLER_40_931
*4426 FILLER_40_938
*4427 FILLER_40_945
*4428 FILLER_40_952
*4429 FILLER_40_959
*4430 FILLER_40_966
*4431 FILLER_40_973
*4432 FILLER_40_98
*4433 FILLER_40_980
*4434 FILLER_40_987
*4435 FILLER_40_994
*4436 FILLER_41_0
*4437 FILLER_41_1001
*4438 FILLER_41_1008
*4439 FILLER_41_1015
*4440 FILLER_41_1022
*4441 FILLER_41_105
*4442 FILLER_41_112
*4443 FILLER_41_119
*4444 FILLER_41_126
*4445 FILLER_41_133
*4446 FILLER_41_14
*4447 FILLER_41_140
*4448 FILLER_41_147
*4449 FILLER_41_154
*4450 FILLER_41_161
*4451 FILLER_41_168
*4452 FILLER_41_175
*4453 FILLER_41_182
*4454 FILLER_41_189
*4455 FILLER_41_196
*4456 FILLER_41_203
*4457 FILLER_41_21
*4458 FILLER_41_210
*4459 FILLER_41_217
*4460 FILLER_41_224
*4461 FILLER_41_231
*4462 FILLER_41_238
*4463 FILLER_41_245
*4464 FILLER_41_252
*4465 FILLER_41_259
*4466 FILLER_41_266
*4467 FILLER_41_273
*4468 FILLER_41_28
*4469 FILLER_41_280
*4470 FILLER_41_287
*4471 FILLER_41_294
*4472 FILLER_41_301
*4473 FILLER_41_308
*4474 FILLER_41_315
*4475 FILLER_41_322
*4476 FILLER_41_329
*4477 FILLER_41_336
*4478 FILLER_41_343
*4479 FILLER_41_35
*4480 FILLER_41_350
*4481 FILLER_41_357
*4482 FILLER_41_364
*4483 FILLER_41_371
*4484 FILLER_41_378
*4485 FILLER_41_385
*4486 FILLER_41_392
*4487 FILLER_41_399
*4488 FILLER_41_406
*4489 FILLER_41_413
*4490 FILLER_41_42
*4491 FILLER_41_420
*4492 FILLER_41_427
*4493 FILLER_41_434
*4494 FILLER_41_441
*4495 FILLER_41_448
*4496 FILLER_41_455
*4497 FILLER_41_462
*4498 FILLER_41_469
*4499 FILLER_41_476
*4500 FILLER_41_483
*4501 FILLER_41_49
*4502 FILLER_41_490
*4503 FILLER_41_497
*4504 FILLER_41_504
*4505 FILLER_41_511
*4506 FILLER_41_518
*4507 FILLER_41_525
*4508 FILLER_41_532
*4509 FILLER_41_539
*4510 FILLER_41_546
*4511 FILLER_41_553
*4512 FILLER_41_56
*4513 FILLER_41_560
*4514 FILLER_41_567
*4515 FILLER_41_574
*4516 FILLER_41_581
*4517 FILLER_41_588
*4518 FILLER_41_595
*4519 FILLER_41_602
*4520 FILLER_41_609
*4521 FILLER_41_616
*4522 FILLER_41_623
*4523 FILLER_41_63
*4524 FILLER_41_630
*4525 FILLER_41_637
*4526 FILLER_41_644
*4527 FILLER_41_651
*4528 FILLER_41_658
*4529 FILLER_41_665
*4530 FILLER_41_672
*4531 FILLER_41_679
*4532 FILLER_41_686
*4533 FILLER_41_693
*4534 FILLER_41_7
*4535 FILLER_41_70
*4536 FILLER_41_700
*4537 FILLER_41_707
*4538 FILLER_41_714
*4539 FILLER_41_721
*4540 FILLER_41_728
*4541 FILLER_41_735
*4542 FILLER_41_742
*4543 FILLER_41_749
*4544 FILLER_41_756
*4545 FILLER_41_763
*4546 FILLER_41_77
*4547 FILLER_41_770
*4548 FILLER_41_777
*4549 FILLER_41_784
*4550 FILLER_41_791
*4551 FILLER_41_798
*4552 FILLER_41_805
*4553 FILLER_41_812
*4554 FILLER_41_819
*4555 FILLER_41_826
*4556 FILLER_41_833
*4557 FILLER_41_84
*4558 FILLER_41_840
*4559 FILLER_41_847
*4560 FILLER_41_854
*4561 FILLER_41_861
*4562 FILLER_41_868
*4563 FILLER_41_875
*4564 FILLER_41_882
*4565 FILLER_41_889
*4566 FILLER_41_896
*4567 FILLER_41_903
*4568 FILLER_41_91
*4569 FILLER_41_910
*4570 FILLER_41_917
*4571 FILLER_41_924
*4572 FILLER_41_931
*4573 FILLER_41_938
*4574 FILLER_41_945
*4575 FILLER_41_952
*4576 FILLER_41_959
*4577 FILLER_41_966
*4578 FILLER_41_973
*4579 FILLER_41_98
*4580 FILLER_41_980
*4581 FILLER_41_987
*4582 FILLER_41_994
*4583 FILLER_42_0
*4584 FILLER_42_1001
*4585 FILLER_42_1008
*4586 FILLER_42_1015
*4587 FILLER_42_1022
*4588 FILLER_42_105
*4589 FILLER_42_112
*4590 FILLER_42_119
*4591 FILLER_42_126
*4592 FILLER_42_133
*4593 FILLER_42_14
*4594 FILLER_42_140
*4595 FILLER_42_147
*4596 FILLER_42_154
*4597 FILLER_42_161
*4598 FILLER_42_168
*4599 FILLER_42_175
*4600 FILLER_42_182
*4601 FILLER_42_189
*4602 FILLER_42_196
*4603 FILLER_42_203
*4604 FILLER_42_21
*4605 FILLER_42_210
*4606 FILLER_42_217
*4607 FILLER_42_224
*4608 FILLER_42_231
*4609 FILLER_42_238
*4610 FILLER_42_245
*4611 FILLER_42_252
*4612 FILLER_42_259
*4613 FILLER_42_266
*4614 FILLER_42_273
*4615 FILLER_42_28
*4616 FILLER_42_280
*4617 FILLER_42_287
*4618 FILLER_42_294
*4619 FILLER_42_301
*4620 FILLER_42_308
*4621 FILLER_42_315
*4622 FILLER_42_322
*4623 FILLER_42_329
*4624 FILLER_42_336
*4625 FILLER_42_343
*4626 FILLER_42_35
*4627 FILLER_42_350
*4628 FILLER_42_357
*4629 FILLER_42_364
*4630 FILLER_42_371
*4631 FILLER_42_378
*4632 FILLER_42_385
*4633 FILLER_42_392
*4634 FILLER_42_399
*4635 FILLER_42_406
*4636 FILLER_42_413
*4637 FILLER_42_42
*4638 FILLER_42_420
*4639 FILLER_42_427
*4640 FILLER_42_434
*4641 FILLER_42_441
*4642 FILLER_42_448
*4643 FILLER_42_455
*4644 FILLER_42_462
*4645 FILLER_42_469
*4646 FILLER_42_476
*4647 FILLER_42_483
*4648 FILLER_42_49
*4649 FILLER_42_490
*4650 FILLER_42_497
*4651 FILLER_42_504
*4652 FILLER_42_511
*4653 FILLER_42_518
*4654 FILLER_42_525
*4655 FILLER_42_532
*4656 FILLER_42_539
*4657 FILLER_42_546
*4658 FILLER_42_553
*4659 FILLER_42_56
*4660 FILLER_42_560
*4661 FILLER_42_567
*4662 FILLER_42_574
*4663 FILLER_42_581
*4664 FILLER_42_588
*4665 FILLER_42_595
*4666 FILLER_42_602
*4667 FILLER_42_609
*4668 FILLER_42_616
*4669 FILLER_42_623
*4670 FILLER_42_63
*4671 FILLER_42_630
*4672 FILLER_42_637
*4673 FILLER_42_644
*4674 FILLER_42_651
*4675 FILLER_42_658
*4676 FILLER_42_665
*4677 FILLER_42_672
*4678 FILLER_42_679
*4679 FILLER_42_686
*4680 FILLER_42_693
*4681 FILLER_42_7
*4682 FILLER_42_70
*4683 FILLER_42_700
*4684 FILLER_42_707
*4685 FILLER_42_714
*4686 FILLER_42_721
*4687 FILLER_42_728
*4688 FILLER_42_735
*4689 FILLER_42_742
*4690 FILLER_42_749
*4691 FILLER_42_756
*4692 FILLER_42_763
*4693 FILLER_42_77
*4694 FILLER_42_770
*4695 FILLER_42_777
*4696 FILLER_42_784
*4697 FILLER_42_791
*4698 FILLER_42_798
*4699 FILLER_42_805
*4700 FILLER_42_812
*4701 FILLER_42_819
*4702 FILLER_42_826
*4703 FILLER_42_833
*4704 FILLER_42_84
*4705 FILLER_42_840
*4706 FILLER_42_847
*4707 FILLER_42_854
*4708 FILLER_42_861
*4709 FILLER_42_868
*4710 FILLER_42_875
*4711 FILLER_42_882
*4712 FILLER_42_889
*4713 FILLER_42_896
*4714 FILLER_42_903
*4715 FILLER_42_91
*4716 FILLER_42_910
*4717 FILLER_42_917
*4718 FILLER_42_924
*4719 FILLER_42_931
*4720 FILLER_42_938
*4721 FILLER_42_945
*4722 FILLER_42_952
*4723 FILLER_42_959
*4724 FILLER_42_966
*4725 FILLER_42_973
*4726 FILLER_42_98
*4727 FILLER_42_980
*4728 FILLER_42_987
*4729 FILLER_42_994
*4730 FILLER_43_0
*4731 FILLER_43_1001
*4732 FILLER_43_1008
*4733 FILLER_43_1015
*4734 FILLER_43_1022
*4735 FILLER_43_105
*4736 FILLER_43_112
*4737 FILLER_43_119
*4738 FILLER_43_126
*4739 FILLER_43_133
*4740 FILLER_43_14
*4741 FILLER_43_140
*4742 FILLER_43_147
*4743 FILLER_43_154
*4744 FILLER_43_161
*4745 FILLER_43_168
*4746 FILLER_43_175
*4747 FILLER_43_182
*4748 FILLER_43_189
*4749 FILLER_43_196
*4750 FILLER_43_203
*4751 FILLER_43_21
*4752 FILLER_43_210
*4753 FILLER_43_217
*4754 FILLER_43_224
*4755 FILLER_43_231
*4756 FILLER_43_238
*4757 FILLER_43_245
*4758 FILLER_43_252
*4759 FILLER_43_259
*4760 FILLER_43_266
*4761 FILLER_43_273
*4762 FILLER_43_28
*4763 FILLER_43_280
*4764 FILLER_43_287
*4765 FILLER_43_294
*4766 FILLER_43_301
*4767 FILLER_43_308
*4768 FILLER_43_315
*4769 FILLER_43_322
*4770 FILLER_43_329
*4771 FILLER_43_336
*4772 FILLER_43_343
*4773 FILLER_43_35
*4774 FILLER_43_350
*4775 FILLER_43_357
*4776 FILLER_43_364
*4777 FILLER_43_371
*4778 FILLER_43_378
*4779 FILLER_43_385
*4780 FILLER_43_392
*4781 FILLER_43_399
*4782 FILLER_43_406
*4783 FILLER_43_413
*4784 FILLER_43_42
*4785 FILLER_43_420
*4786 FILLER_43_427
*4787 FILLER_43_434
*4788 FILLER_43_441
*4789 FILLER_43_448
*4790 FILLER_43_455
*4791 FILLER_43_462
*4792 FILLER_43_469
*4793 FILLER_43_476
*4794 FILLER_43_483
*4795 FILLER_43_49
*4796 FILLER_43_490
*4797 FILLER_43_497
*4798 FILLER_43_504
*4799 FILLER_43_511
*4800 FILLER_43_518
*4801 FILLER_43_525
*4802 FILLER_43_532
*4803 FILLER_43_539
*4804 FILLER_43_546
*4805 FILLER_43_553
*4806 FILLER_43_56
*4807 FILLER_43_560
*4808 FILLER_43_567
*4809 FILLER_43_574
*4810 FILLER_43_581
*4811 FILLER_43_588
*4812 FILLER_43_595
*4813 FILLER_43_602
*4814 FILLER_43_609
*4815 FILLER_43_616
*4816 FILLER_43_623
*4817 FILLER_43_63
*4818 FILLER_43_630
*4819 FILLER_43_637
*4820 FILLER_43_644
*4821 FILLER_43_651
*4822 FILLER_43_658
*4823 FILLER_43_665
*4824 FILLER_43_672
*4825 FILLER_43_679
*4826 FILLER_43_686
*4827 FILLER_43_693
*4828 FILLER_43_7
*4829 FILLER_43_70
*4830 FILLER_43_700
*4831 FILLER_43_707
*4832 FILLER_43_714
*4833 FILLER_43_721
*4834 FILLER_43_728
*4835 FILLER_43_735
*4836 FILLER_43_742
*4837 FILLER_43_749
*4838 FILLER_43_756
*4839 FILLER_43_763
*4840 FILLER_43_77
*4841 FILLER_43_770
*4842 FILLER_43_777
*4843 FILLER_43_784
*4844 FILLER_43_791
*4845 FILLER_43_798
*4846 FILLER_43_805
*4847 FILLER_43_812
*4848 FILLER_43_819
*4849 FILLER_43_826
*4850 FILLER_43_833
*4851 FILLER_43_84
*4852 FILLER_43_840
*4853 FILLER_43_847
*4854 FILLER_43_854
*4855 FILLER_43_861
*4856 FILLER_43_868
*4857 FILLER_43_875
*4858 FILLER_43_882
*4859 FILLER_43_889
*4860 FILLER_43_896
*4861 FILLER_43_903
*4862 FILLER_43_91
*4863 FILLER_43_910
*4864 FILLER_43_917
*4865 FILLER_43_924
*4866 FILLER_43_931
*4867 FILLER_43_938
*4868 FILLER_43_945
*4869 FILLER_43_952
*4870 FILLER_43_959
*4871 FILLER_43_966
*4872 FILLER_43_973
*4873 FILLER_43_98
*4874 FILLER_43_980
*4875 FILLER_43_987
*4876 FILLER_43_994
*4877 FILLER_44_0
*4878 FILLER_44_1001
*4879 FILLER_44_1008
*4880 FILLER_44_1015
*4881 FILLER_44_1022
*4882 FILLER_44_105
*4883 FILLER_44_112
*4884 FILLER_44_119
*4885 FILLER_44_126
*4886 FILLER_44_133
*4887 FILLER_44_14
*4888 FILLER_44_140
*4889 FILLER_44_147
*4890 FILLER_44_154
*4891 FILLER_44_161
*4892 FILLER_44_168
*4893 FILLER_44_175
*4894 FILLER_44_182
*4895 FILLER_44_189
*4896 FILLER_44_196
*4897 FILLER_44_203
*4898 FILLER_44_21
*4899 FILLER_44_210
*4900 FILLER_44_217
*4901 FILLER_44_224
*4902 FILLER_44_231
*4903 FILLER_44_238
*4904 FILLER_44_245
*4905 FILLER_44_252
*4906 FILLER_44_259
*4907 FILLER_44_266
*4908 FILLER_44_273
*4909 FILLER_44_28
*4910 FILLER_44_280
*4911 FILLER_44_287
*4912 FILLER_44_294
*4913 FILLER_44_301
*4914 FILLER_44_308
*4915 FILLER_44_315
*4916 FILLER_44_322
*4917 FILLER_44_329
*4918 FILLER_44_336
*4919 FILLER_44_343
*4920 FILLER_44_35
*4921 FILLER_44_350
*4922 FILLER_44_357
*4923 FILLER_44_364
*4924 FILLER_44_371
*4925 FILLER_44_378
*4926 FILLER_44_385
*4927 FILLER_44_392
*4928 FILLER_44_399
*4929 FILLER_44_406
*4930 FILLER_44_413
*4931 FILLER_44_42
*4932 FILLER_44_420
*4933 FILLER_44_427
*4934 FILLER_44_434
*4935 FILLER_44_441
*4936 FILLER_44_448
*4937 FILLER_44_455
*4938 FILLER_44_462
*4939 FILLER_44_469
*4940 FILLER_44_476
*4941 FILLER_44_483
*4942 FILLER_44_49
*4943 FILLER_44_490
*4944 FILLER_44_497
*4945 FILLER_44_504
*4946 FILLER_44_511
*4947 FILLER_44_518
*4948 FILLER_44_525
*4949 FILLER_44_532
*4950 FILLER_44_539
*4951 FILLER_44_546
*4952 FILLER_44_553
*4953 FILLER_44_56
*4954 FILLER_44_560
*4955 FILLER_44_567
*4956 FILLER_44_574
*4957 FILLER_44_581
*4958 FILLER_44_588
*4959 FILLER_44_595
*4960 FILLER_44_602
*4961 FILLER_44_609
*4962 FILLER_44_616
*4963 FILLER_44_623
*4964 FILLER_44_63
*4965 FILLER_44_630
*4966 FILLER_44_637
*4967 FILLER_44_644
*4968 FILLER_44_651
*4969 FILLER_44_658
*4970 FILLER_44_665
*4971 FILLER_44_672
*4972 FILLER_44_679
*4973 FILLER_44_686
*4974 FILLER_44_693
*4975 FILLER_44_7
*4976 FILLER_44_70
*4977 FILLER_44_700
*4978 FILLER_44_707
*4979 FILLER_44_714
*4980 FILLER_44_721
*4981 FILLER_44_728
*4982 FILLER_44_735
*4983 FILLER_44_742
*4984 FILLER_44_749
*4985 FILLER_44_756
*4986 FILLER_44_763
*4987 FILLER_44_77
*4988 FILLER_44_770
*4989 FILLER_44_777
*4990 FILLER_44_784
*4991 FILLER_44_791
*4992 FILLER_44_798
*4993 FILLER_44_805
*4994 FILLER_44_812
*4995 FILLER_44_819
*4996 FILLER_44_826
*4997 FILLER_44_833
*4998 FILLER_44_84
*4999 FILLER_44_840
*5000 FILLER_44_847
*5001 FILLER_44_854
*5002 FILLER_44_861
*5003 FILLER_44_868
*5004 FILLER_44_875
*5005 FILLER_44_882
*5006 FILLER_44_889
*5007 FILLER_44_896
*5008 FILLER_44_903
*5009 FILLER_44_91
*5010 FILLER_44_910
*5011 FILLER_44_917
*5012 FILLER_44_924
*5013 FILLER_44_931
*5014 FILLER_44_938
*5015 FILLER_44_945
*5016 FILLER_44_952
*5017 FILLER_44_959
*5018 FILLER_44_966
*5019 FILLER_44_973
*5020 FILLER_44_98
*5021 FILLER_44_980
*5022 FILLER_44_987
*5023 FILLER_44_994
*5024 FILLER_45_0
*5025 FILLER_45_1001
*5026 FILLER_45_1008
*5027 FILLER_45_1015
*5028 FILLER_45_1022
*5029 FILLER_45_105
*5030 FILLER_45_112
*5031 FILLER_45_119
*5032 FILLER_45_126
*5033 FILLER_45_133
*5034 FILLER_45_14
*5035 FILLER_45_140
*5036 FILLER_45_147
*5037 FILLER_45_154
*5038 FILLER_45_161
*5039 FILLER_45_168
*5040 FILLER_45_175
*5041 FILLER_45_182
*5042 FILLER_45_189
*5043 FILLER_45_196
*5044 FILLER_45_203
*5045 FILLER_45_21
*5046 FILLER_45_210
*5047 FILLER_45_217
*5048 FILLER_45_224
*5049 FILLER_45_231
*5050 FILLER_45_238
*5051 FILLER_45_245
*5052 FILLER_45_252
*5053 FILLER_45_259
*5054 FILLER_45_266
*5055 FILLER_45_273
*5056 FILLER_45_28
*5057 FILLER_45_280
*5058 FILLER_45_287
*5059 FILLER_45_294
*5060 FILLER_45_301
*5061 FILLER_45_308
*5062 FILLER_45_315
*5063 FILLER_45_322
*5064 FILLER_45_329
*5065 FILLER_45_336
*5066 FILLER_45_343
*5067 FILLER_45_35
*5068 FILLER_45_350
*5069 FILLER_45_357
*5070 FILLER_45_364
*5071 FILLER_45_371
*5072 FILLER_45_378
*5073 FILLER_45_385
*5074 FILLER_45_392
*5075 FILLER_45_399
*5076 FILLER_45_406
*5077 FILLER_45_413
*5078 FILLER_45_42
*5079 FILLER_45_420
*5080 FILLER_45_427
*5081 FILLER_45_434
*5082 FILLER_45_441
*5083 FILLER_45_448
*5084 FILLER_45_455
*5085 FILLER_45_462
*5086 FILLER_45_469
*5087 FILLER_45_476
*5088 FILLER_45_483
*5089 FILLER_45_49
*5090 FILLER_45_490
*5091 FILLER_45_497
*5092 FILLER_45_504
*5093 FILLER_45_511
*5094 FILLER_45_518
*5095 FILLER_45_525
*5096 FILLER_45_532
*5097 FILLER_45_539
*5098 FILLER_45_546
*5099 FILLER_45_553
*5100 FILLER_45_56
*5101 FILLER_45_560
*5102 FILLER_45_567
*5103 FILLER_45_574
*5104 FILLER_45_581
*5105 FILLER_45_588
*5106 FILLER_45_595
*5107 FILLER_45_602
*5108 FILLER_45_609
*5109 FILLER_45_616
*5110 FILLER_45_623
*5111 FILLER_45_63
*5112 FILLER_45_630
*5113 FILLER_45_637
*5114 FILLER_45_644
*5115 FILLER_45_651
*5116 FILLER_45_658
*5117 FILLER_45_665
*5118 FILLER_45_672
*5119 FILLER_45_679
*5120 FILLER_45_686
*5121 FILLER_45_693
*5122 FILLER_45_7
*5123 FILLER_45_70
*5124 FILLER_45_700
*5125 FILLER_45_707
*5126 FILLER_45_714
*5127 FILLER_45_721
*5128 FILLER_45_728
*5129 FILLER_45_735
*5130 FILLER_45_742
*5131 FILLER_45_749
*5132 FILLER_45_756
*5133 FILLER_45_763
*5134 FILLER_45_77
*5135 FILLER_45_770
*5136 FILLER_45_777
*5137 FILLER_45_784
*5138 FILLER_45_791
*5139 FILLER_45_798
*5140 FILLER_45_805
*5141 FILLER_45_812
*5142 FILLER_45_819
*5143 FILLER_45_826
*5144 FILLER_45_833
*5145 FILLER_45_84
*5146 FILLER_45_840
*5147 FILLER_45_847
*5148 FILLER_45_854
*5149 FILLER_45_861
*5150 FILLER_45_868
*5151 FILLER_45_875
*5152 FILLER_45_882
*5153 FILLER_45_889
*5154 FILLER_45_896
*5155 FILLER_45_903
*5156 FILLER_45_91
*5157 FILLER_45_910
*5158 FILLER_45_917
*5159 FILLER_45_924
*5160 FILLER_45_931
*5161 FILLER_45_938
*5162 FILLER_45_945
*5163 FILLER_45_952
*5164 FILLER_45_959
*5165 FILLER_45_966
*5166 FILLER_45_973
*5167 FILLER_45_98
*5168 FILLER_45_980
*5169 FILLER_45_987
*5170 FILLER_45_994
*5171 FILLER_46_0
*5172 FILLER_46_1001
*5173 FILLER_46_1008
*5174 FILLER_46_1015
*5175 FILLER_46_1022
*5176 FILLER_46_105
*5177 FILLER_46_112
*5178 FILLER_46_119
*5179 FILLER_46_126
*5180 FILLER_46_133
*5181 FILLER_46_14
*5182 FILLER_46_140
*5183 FILLER_46_147
*5184 FILLER_46_154
*5185 FILLER_46_161
*5186 FILLER_46_168
*5187 FILLER_46_175
*5188 FILLER_46_182
*5189 FILLER_46_189
*5190 FILLER_46_196
*5191 FILLER_46_203
*5192 FILLER_46_21
*5193 FILLER_46_210
*5194 FILLER_46_217
*5195 FILLER_46_224
*5196 FILLER_46_231
*5197 FILLER_46_238
*5198 FILLER_46_245
*5199 FILLER_46_252
*5200 FILLER_46_259
*5201 FILLER_46_266
*5202 FILLER_46_273
*5203 FILLER_46_28
*5204 FILLER_46_280
*5205 FILLER_46_287
*5206 FILLER_46_294
*5207 FILLER_46_301
*5208 FILLER_46_308
*5209 FILLER_46_315
*5210 FILLER_46_322
*5211 FILLER_46_329
*5212 FILLER_46_336
*5213 FILLER_46_343
*5214 FILLER_46_35
*5215 FILLER_46_350
*5216 FILLER_46_357
*5217 FILLER_46_364
*5218 FILLER_46_371
*5219 FILLER_46_378
*5220 FILLER_46_385
*5221 FILLER_46_392
*5222 FILLER_46_399
*5223 FILLER_46_406
*5224 FILLER_46_413
*5225 FILLER_46_42
*5226 FILLER_46_420
*5227 FILLER_46_427
*5228 FILLER_46_434
*5229 FILLER_46_441
*5230 FILLER_46_448
*5231 FILLER_46_455
*5232 FILLER_46_462
*5233 FILLER_46_469
*5234 FILLER_46_476
*5235 FILLER_46_483
*5236 FILLER_46_49
*5237 FILLER_46_490
*5238 FILLER_46_497
*5239 FILLER_46_504
*5240 FILLER_46_511
*5241 FILLER_46_518
*5242 FILLER_46_525
*5243 FILLER_46_532
*5244 FILLER_46_539
*5245 FILLER_46_546
*5246 FILLER_46_553
*5247 FILLER_46_56
*5248 FILLER_46_560
*5249 FILLER_46_567
*5250 FILLER_46_574
*5251 FILLER_46_581
*5252 FILLER_46_588
*5253 FILLER_46_595
*5254 FILLER_46_602
*5255 FILLER_46_609
*5256 FILLER_46_616
*5257 FILLER_46_623
*5258 FILLER_46_63
*5259 FILLER_46_630
*5260 FILLER_46_637
*5261 FILLER_46_644
*5262 FILLER_46_651
*5263 FILLER_46_658
*5264 FILLER_46_665
*5265 FILLER_46_672
*5266 FILLER_46_679
*5267 FILLER_46_686
*5268 FILLER_46_693
*5269 FILLER_46_7
*5270 FILLER_46_70
*5271 FILLER_46_700
*5272 FILLER_46_707
*5273 FILLER_46_714
*5274 FILLER_46_721
*5275 FILLER_46_728
*5276 FILLER_46_735
*5277 FILLER_46_742
*5278 FILLER_46_749
*5279 FILLER_46_756
*5280 FILLER_46_763
*5281 FILLER_46_77
*5282 FILLER_46_770
*5283 FILLER_46_777
*5284 FILLER_46_784
*5285 FILLER_46_791
*5286 FILLER_46_798
*5287 FILLER_46_805
*5288 FILLER_46_812
*5289 FILLER_46_819
*5290 FILLER_46_826
*5291 FILLER_46_833
*5292 FILLER_46_84
*5293 FILLER_46_840
*5294 FILLER_46_847
*5295 FILLER_46_854
*5296 FILLER_46_861
*5297 FILLER_46_868
*5298 FILLER_46_875
*5299 FILLER_46_882
*5300 FILLER_46_889
*5301 FILLER_46_896
*5302 FILLER_46_903
*5303 FILLER_46_91
*5304 FILLER_46_910
*5305 FILLER_46_917
*5306 FILLER_46_924
*5307 FILLER_46_931
*5308 FILLER_46_938
*5309 FILLER_46_945
*5310 FILLER_46_952
*5311 FILLER_46_959
*5312 FILLER_46_966
*5313 FILLER_46_973
*5314 FILLER_46_98
*5315 FILLER_46_980
*5316 FILLER_46_987
*5317 FILLER_46_994
*5318 FILLER_47_0
*5319 FILLER_47_1001
*5320 FILLER_47_1008
*5321 FILLER_47_1015
*5322 FILLER_47_1022
*5323 FILLER_47_105
*5324 FILLER_47_112
*5325 FILLER_47_119
*5326 FILLER_47_126
*5327 FILLER_47_133
*5328 FILLER_47_14
*5329 FILLER_47_140
*5330 FILLER_47_147
*5331 FILLER_47_154
*5332 FILLER_47_161
*5333 FILLER_47_168
*5334 FILLER_47_175
*5335 FILLER_47_182
*5336 FILLER_47_189
*5337 FILLER_47_196
*5338 FILLER_47_203
*5339 FILLER_47_21
*5340 FILLER_47_210
*5341 FILLER_47_217
*5342 FILLER_47_224
*5343 FILLER_47_231
*5344 FILLER_47_238
*5345 FILLER_47_245
*5346 FILLER_47_252
*5347 FILLER_47_259
*5348 FILLER_47_266
*5349 FILLER_47_273
*5350 FILLER_47_28
*5351 FILLER_47_280
*5352 FILLER_47_287
*5353 FILLER_47_294
*5354 FILLER_47_301
*5355 FILLER_47_308
*5356 FILLER_47_315
*5357 FILLER_47_322
*5358 FILLER_47_329
*5359 FILLER_47_336
*5360 FILLER_47_343
*5361 FILLER_47_35
*5362 FILLER_47_350
*5363 FILLER_47_357
*5364 FILLER_47_364
*5365 FILLER_47_371
*5366 FILLER_47_378
*5367 FILLER_47_385
*5368 FILLER_47_392
*5369 FILLER_47_399
*5370 FILLER_47_406
*5371 FILLER_47_413
*5372 FILLER_47_42
*5373 FILLER_47_420
*5374 FILLER_47_427
*5375 FILLER_47_434
*5376 FILLER_47_441
*5377 FILLER_47_448
*5378 FILLER_47_455
*5379 FILLER_47_462
*5380 FILLER_47_469
*5381 FILLER_47_476
*5382 FILLER_47_483
*5383 FILLER_47_49
*5384 FILLER_47_490
*5385 FILLER_47_497
*5386 FILLER_47_504
*5387 FILLER_47_511
*5388 FILLER_47_518
*5389 FILLER_47_525
*5390 FILLER_47_532
*5391 FILLER_47_539
*5392 FILLER_47_546
*5393 FILLER_47_553
*5394 FILLER_47_56
*5395 FILLER_47_560
*5396 FILLER_47_567
*5397 FILLER_47_574
*5398 FILLER_47_581
*5399 FILLER_47_588
*5400 FILLER_47_595
*5401 FILLER_47_602
*5402 FILLER_47_609
*5403 FILLER_47_616
*5404 FILLER_47_623
*5405 FILLER_47_63
*5406 FILLER_47_630
*5407 FILLER_47_637
*5408 FILLER_47_644
*5409 FILLER_47_651
*5410 FILLER_47_658
*5411 FILLER_47_665
*5412 FILLER_47_672
*5413 FILLER_47_679
*5414 FILLER_47_686
*5415 FILLER_47_693
*5416 FILLER_47_7
*5417 FILLER_47_70
*5418 FILLER_47_700
*5419 FILLER_47_707
*5420 FILLER_47_714
*5421 FILLER_47_721
*5422 FILLER_47_728
*5423 FILLER_47_735
*5424 FILLER_47_742
*5425 FILLER_47_749
*5426 FILLER_47_756
*5427 FILLER_47_763
*5428 FILLER_47_77
*5429 FILLER_47_770
*5430 FILLER_47_777
*5431 FILLER_47_784
*5432 FILLER_47_791
*5433 FILLER_47_798
*5434 FILLER_47_805
*5435 FILLER_47_812
*5436 FILLER_47_819
*5437 FILLER_47_826
*5438 FILLER_47_833
*5439 FILLER_47_84
*5440 FILLER_47_840
*5441 FILLER_47_847
*5442 FILLER_47_854
*5443 FILLER_47_861
*5444 FILLER_47_868
*5445 FILLER_47_875
*5446 FILLER_47_882
*5447 FILLER_47_889
*5448 FILLER_47_896
*5449 FILLER_47_903
*5450 FILLER_47_91
*5451 FILLER_47_910
*5452 FILLER_47_917
*5453 FILLER_47_924
*5454 FILLER_47_931
*5455 FILLER_47_938
*5456 FILLER_47_945
*5457 FILLER_47_952
*5458 FILLER_47_959
*5459 FILLER_47_966
*5460 FILLER_47_973
*5461 FILLER_47_98
*5462 FILLER_47_980
*5463 FILLER_47_987
*5464 FILLER_47_994
*5465 FILLER_48_0
*5466 FILLER_48_1001
*5467 FILLER_48_1008
*5468 FILLER_48_1015
*5469 FILLER_48_1022
*5470 FILLER_48_105
*5471 FILLER_48_112
*5472 FILLER_48_119
*5473 FILLER_48_126
*5474 FILLER_48_133
*5475 FILLER_48_14
*5476 FILLER_48_140
*5477 FILLER_48_147
*5478 FILLER_48_154
*5479 FILLER_48_161
*5480 FILLER_48_168
*5481 FILLER_48_175
*5482 FILLER_48_182
*5483 FILLER_48_189
*5484 FILLER_48_196
*5485 FILLER_48_203
*5486 FILLER_48_21
*5487 FILLER_48_210
*5488 FILLER_48_217
*5489 FILLER_48_224
*5490 FILLER_48_231
*5491 FILLER_48_238
*5492 FILLER_48_245
*5493 FILLER_48_252
*5494 FILLER_48_259
*5495 FILLER_48_266
*5496 FILLER_48_273
*5497 FILLER_48_28
*5498 FILLER_48_280
*5499 FILLER_48_287
*5500 FILLER_48_294
*5501 FILLER_48_301
*5502 FILLER_48_308
*5503 FILLER_48_315
*5504 FILLER_48_322
*5505 FILLER_48_329
*5506 FILLER_48_336
*5507 FILLER_48_343
*5508 FILLER_48_35
*5509 FILLER_48_350
*5510 FILLER_48_357
*5511 FILLER_48_364
*5512 FILLER_48_371
*5513 FILLER_48_378
*5514 FILLER_48_385
*5515 FILLER_48_392
*5516 FILLER_48_399
*5517 FILLER_48_406
*5518 FILLER_48_413
*5519 FILLER_48_42
*5520 FILLER_48_420
*5521 FILLER_48_427
*5522 FILLER_48_434
*5523 FILLER_48_441
*5524 FILLER_48_448
*5525 FILLER_48_455
*5526 FILLER_48_462
*5527 FILLER_48_469
*5528 FILLER_48_476
*5529 FILLER_48_483
*5530 FILLER_48_49
*5531 FILLER_48_490
*5532 FILLER_48_497
*5533 FILLER_48_504
*5534 FILLER_48_511
*5535 FILLER_48_518
*5536 FILLER_48_525
*5537 FILLER_48_532
*5538 FILLER_48_539
*5539 FILLER_48_546
*5540 FILLER_48_553
*5541 FILLER_48_56
*5542 FILLER_48_560
*5543 FILLER_48_567
*5544 FILLER_48_574
*5545 FILLER_48_581
*5546 FILLER_48_588
*5547 FILLER_48_595
*5548 FILLER_48_602
*5549 FILLER_48_609
*5550 FILLER_48_616
*5551 FILLER_48_623
*5552 FILLER_48_63
*5553 FILLER_48_630
*5554 FILLER_48_637
*5555 FILLER_48_644
*5556 FILLER_48_651
*5557 FILLER_48_658
*5558 FILLER_48_665
*5559 FILLER_48_672
*5560 FILLER_48_679
*5561 FILLER_48_686
*5562 FILLER_48_693
*5563 FILLER_48_7
*5564 FILLER_48_70
*5565 FILLER_48_700
*5566 FILLER_48_707
*5567 FILLER_48_714
*5568 FILLER_48_721
*5569 FILLER_48_728
*5570 FILLER_48_735
*5571 FILLER_48_742
*5572 FILLER_48_749
*5573 FILLER_48_756
*5574 FILLER_48_763
*5575 FILLER_48_77
*5576 FILLER_48_770
*5577 FILLER_48_777
*5578 FILLER_48_784
*5579 FILLER_48_791
*5580 FILLER_48_798
*5581 FILLER_48_805
*5582 FILLER_48_812
*5583 FILLER_48_819
*5584 FILLER_48_826
*5585 FILLER_48_833
*5586 FILLER_48_84
*5587 FILLER_48_840
*5588 FILLER_48_847
*5589 FILLER_48_854
*5590 FILLER_48_861
*5591 FILLER_48_868
*5592 FILLER_48_875
*5593 FILLER_48_882
*5594 FILLER_48_889
*5595 FILLER_48_896
*5596 FILLER_48_903
*5597 FILLER_48_91
*5598 FILLER_48_910
*5599 FILLER_48_917
*5600 FILLER_48_924
*5601 FILLER_48_931
*5602 FILLER_48_938
*5603 FILLER_48_945
*5604 FILLER_48_952
*5605 FILLER_48_959
*5606 FILLER_48_966
*5607 FILLER_48_973
*5608 FILLER_48_98
*5609 FILLER_48_980
*5610 FILLER_48_987
*5611 FILLER_48_994
*5612 FILLER_49_1005
*5613 FILLER_49_1012
*5614 FILLER_49_1019
*5615 FILLER_49_102
*5616 FILLER_49_1026
*5617 FILLER_49_1028
*5618 FILLER_49_109
*5619 FILLER_49_11
*5620 FILLER_49_116
*5621 FILLER_49_123
*5622 FILLER_49_130
*5623 FILLER_49_137
*5624 FILLER_49_144
*5625 FILLER_49_151
*5626 FILLER_49_158
*5627 FILLER_49_165
*5628 FILLER_49_172
*5629 FILLER_49_179
*5630 FILLER_49_18
*5631 FILLER_49_186
*5632 FILLER_49_193
*5633 FILLER_49_200
*5634 FILLER_49_207
*5635 FILLER_49_214
*5636 FILLER_49_221
*5637 FILLER_49_228
*5638 FILLER_49_235
*5639 FILLER_49_242
*5640 FILLER_49_249
*5641 FILLER_49_25
*5642 FILLER_49_256
*5643 FILLER_49_263
*5644 FILLER_49_270
*5645 FILLER_49_277
*5646 FILLER_49_284
*5647 FILLER_49_291
*5648 FILLER_49_298
*5649 FILLER_49_305
*5650 FILLER_49_312
*5651 FILLER_49_319
*5652 FILLER_49_32
*5653 FILLER_49_326
*5654 FILLER_49_333
*5655 FILLER_49_340
*5656 FILLER_49_347
*5657 FILLER_49_354
*5658 FILLER_49_361
*5659 FILLER_49_368
*5660 FILLER_49_375
*5661 FILLER_49_382
*5662 FILLER_49_389
*5663 FILLER_49_39
*5664 FILLER_49_396
*5665 FILLER_49_4
*5666 FILLER_49_403
*5667 FILLER_49_410
*5668 FILLER_49_417
*5669 FILLER_49_424
*5670 FILLER_49_431
*5671 FILLER_49_438
*5672 FILLER_49_445
*5673 FILLER_49_452
*5674 FILLER_49_459
*5675 FILLER_49_46
*5676 FILLER_49_466
*5677 FILLER_49_473
*5678 FILLER_49_480
*5679 FILLER_49_487
*5680 FILLER_49_494
*5681 FILLER_49_501
*5682 FILLER_49_508
*5683 FILLER_49_515
*5684 FILLER_49_522
*5685 FILLER_49_529
*5686 FILLER_49_53
*5687 FILLER_49_536
*5688 FILLER_49_543
*5689 FILLER_49_550
*5690 FILLER_49_557
*5691 FILLER_49_564
*5692 FILLER_49_571
*5693 FILLER_49_578
*5694 FILLER_49_585
*5695 FILLER_49_592
*5696 FILLER_49_599
*5697 FILLER_49_60
*5698 FILLER_49_606
*5699 FILLER_49_613
*5700 FILLER_49_620
*5701 FILLER_49_627
*5702 FILLER_49_634
*5703 FILLER_49_641
*5704 FILLER_49_648
*5705 FILLER_49_655
*5706 FILLER_49_662
*5707 FILLER_49_669
*5708 FILLER_49_67
*5709 FILLER_49_676
*5710 FILLER_49_683
*5711 FILLER_49_690
*5712 FILLER_49_697
*5713 FILLER_49_704
*5714 FILLER_49_711
*5715 FILLER_49_718
*5716 FILLER_49_725
*5717 FILLER_49_732
*5718 FILLER_49_739
*5719 FILLER_49_74
*5720 FILLER_49_746
*5721 FILLER_49_753
*5722 FILLER_49_760
*5723 FILLER_49_767
*5724 FILLER_49_774
*5725 FILLER_49_781
*5726 FILLER_49_788
*5727 FILLER_49_795
*5728 FILLER_49_802
*5729 FILLER_49_809
*5730 FILLER_49_81
*5731 FILLER_49_816
*5732 FILLER_49_823
*5733 FILLER_49_830
*5734 FILLER_49_837
*5735 FILLER_49_844
*5736 FILLER_49_851
*5737 FILLER_49_858
*5738 FILLER_49_865
*5739 FILLER_49_872
*5740 FILLER_49_879
*5741 FILLER_49_88
*5742 FILLER_49_886
*5743 FILLER_49_893
*5744 FILLER_49_900
*5745 FILLER_49_907
*5746 FILLER_49_914
*5747 FILLER_49_921
*5748 FILLER_49_928
*5749 FILLER_49_935
*5750 FILLER_49_942
*5751 FILLER_49_949
*5752 FILLER_49_95
*5753 FILLER_49_956
*5754 FILLER_49_963
*5755 FILLER_49_970
*5756 FILLER_49_977
*5757 FILLER_49_984
*5758 FILLER_49_991
*5759 FILLER_49_998
*5760 FILLER_4_1005
*5761 FILLER_4_1012
*5762 FILLER_4_1019
*5763 FILLER_4_102
*5764 FILLER_4_1026
*5765 FILLER_4_1028
*5766 FILLER_4_109
*5767 FILLER_4_11
*5768 FILLER_4_116
*5769 FILLER_4_123
*5770 FILLER_4_130
*5771 FILLER_4_137
*5772 FILLER_4_144
*5773 FILLER_4_151
*5774 FILLER_4_158
*5775 FILLER_4_165
*5776 FILLER_4_172
*5777 FILLER_4_179
*5778 FILLER_4_18
*5779 FILLER_4_186
*5780 FILLER_4_193
*5781 FILLER_4_200
*5782 FILLER_4_207
*5783 FILLER_4_214
*5784 FILLER_4_221
*5785 FILLER_4_228
*5786 FILLER_4_235
*5787 FILLER_4_242
*5788 FILLER_4_249
*5789 FILLER_4_25
*5790 FILLER_4_256
*5791 FILLER_4_263
*5792 FILLER_4_270
*5793 FILLER_4_277
*5794 FILLER_4_284
*5795 FILLER_4_291
*5796 FILLER_4_298
*5797 FILLER_4_305
*5798 FILLER_4_312
*5799 FILLER_4_319
*5800 FILLER_4_32
*5801 FILLER_4_326
*5802 FILLER_4_333
*5803 FILLER_4_340
*5804 FILLER_4_347
*5805 FILLER_4_354
*5806 FILLER_4_361
*5807 FILLER_4_368
*5808 FILLER_4_375
*5809 FILLER_4_382
*5810 FILLER_4_389
*5811 FILLER_4_39
*5812 FILLER_4_396
*5813 FILLER_4_4
*5814 FILLER_4_403
*5815 FILLER_4_410
*5816 FILLER_4_417
*5817 FILLER_4_424
*5818 FILLER_4_431
*5819 FILLER_4_438
*5820 FILLER_4_445
*5821 FILLER_4_452
*5822 FILLER_4_459
*5823 FILLER_4_46
*5824 FILLER_4_466
*5825 FILLER_4_473
*5826 FILLER_4_480
*5827 FILLER_4_487
*5828 FILLER_4_494
*5829 FILLER_4_501
*5830 FILLER_4_508
*5831 FILLER_4_515
*5832 FILLER_4_522
*5833 FILLER_4_529
*5834 FILLER_4_53
*5835 FILLER_4_536
*5836 FILLER_4_543
*5837 FILLER_4_550
*5838 FILLER_4_557
*5839 FILLER_4_564
*5840 FILLER_4_571
*5841 FILLER_4_578
*5842 FILLER_4_585
*5843 FILLER_4_592
*5844 FILLER_4_599
*5845 FILLER_4_60
*5846 FILLER_4_606
*5847 FILLER_4_613
*5848 FILLER_4_620
*5849 FILLER_4_627
*5850 FILLER_4_634
*5851 FILLER_4_641
*5852 FILLER_4_648
*5853 FILLER_4_655
*5854 FILLER_4_662
*5855 FILLER_4_669
*5856 FILLER_4_67
*5857 FILLER_4_676
*5858 FILLER_4_683
*5859 FILLER_4_690
*5860 FILLER_4_697
*5861 FILLER_4_704
*5862 FILLER_4_711
*5863 FILLER_4_718
*5864 FILLER_4_725
*5865 FILLER_4_732
*5866 FILLER_4_739
*5867 FILLER_4_74
*5868 FILLER_4_746
*5869 FILLER_4_753
*5870 FILLER_4_760
*5871 FILLER_4_767
*5872 FILLER_4_774
*5873 FILLER_4_781
*5874 FILLER_4_788
*5875 FILLER_4_795
*5876 FILLER_4_802
*5877 FILLER_4_809
*5878 FILLER_4_81
*5879 FILLER_4_816
*5880 FILLER_4_823
*5881 FILLER_4_830
*5882 FILLER_4_837
*5883 FILLER_4_844
*5884 FILLER_4_851
*5885 FILLER_4_858
*5886 FILLER_4_865
*5887 FILLER_4_872
*5888 FILLER_4_879
*5889 FILLER_4_88
*5890 FILLER_4_886
*5891 FILLER_4_893
*5892 FILLER_4_900
*5893 FILLER_4_907
*5894 FILLER_4_914
*5895 FILLER_4_921
*5896 FILLER_4_928
*5897 FILLER_4_935
*5898 FILLER_4_942
*5899 FILLER_4_949
*5900 FILLER_4_95
*5901 FILLER_4_956
*5902 FILLER_4_963
*5903 FILLER_4_970
*5904 FILLER_4_977
*5905 FILLER_4_984
*5906 FILLER_4_991
*5907 FILLER_4_998
*5908 FILLER_5_1005
*5909 FILLER_5_1012
*5910 FILLER_5_1019
*5911 FILLER_5_102
*5912 FILLER_5_1026
*5913 FILLER_5_1028
*5914 FILLER_5_109
*5915 FILLER_5_11
*5916 FILLER_5_116
*5917 FILLER_5_123
*5918 FILLER_5_130
*5919 FILLER_5_137
*5920 FILLER_5_144
*5921 FILLER_5_151
*5922 FILLER_5_158
*5923 FILLER_5_165
*5924 FILLER_5_172
*5925 FILLER_5_179
*5926 FILLER_5_18
*5927 FILLER_5_186
*5928 FILLER_5_193
*5929 FILLER_5_200
*5930 FILLER_5_207
*5931 FILLER_5_214
*5932 FILLER_5_221
*5933 FILLER_5_228
*5934 FILLER_5_235
*5935 FILLER_5_242
*5936 FILLER_5_249
*5937 FILLER_5_25
*5938 FILLER_5_256
*5939 FILLER_5_263
*5940 FILLER_5_270
*5941 FILLER_5_277
*5942 FILLER_5_284
*5943 FILLER_5_291
*5944 FILLER_5_298
*5945 FILLER_5_305
*5946 FILLER_5_312
*5947 FILLER_5_319
*5948 FILLER_5_32
*5949 FILLER_5_326
*5950 FILLER_5_333
*5951 FILLER_5_340
*5952 FILLER_5_347
*5953 FILLER_5_354
*5954 FILLER_5_361
*5955 FILLER_5_368
*5956 FILLER_5_375
*5957 FILLER_5_382
*5958 FILLER_5_389
*5959 FILLER_5_39
*5960 FILLER_5_396
*5961 FILLER_5_4
*5962 FILLER_5_403
*5963 FILLER_5_410
*5964 FILLER_5_417
*5965 FILLER_5_424
*5966 FILLER_5_431
*5967 FILLER_5_438
*5968 FILLER_5_445
*5969 FILLER_5_452
*5970 FILLER_5_459
*5971 FILLER_5_46
*5972 FILLER_5_466
*5973 FILLER_5_473
*5974 FILLER_5_480
*5975 FILLER_5_487
*5976 FILLER_5_494
*5977 FILLER_5_501
*5978 FILLER_5_508
*5979 FILLER_5_515
*5980 FILLER_5_522
*5981 FILLER_5_529
*5982 FILLER_5_53
*5983 FILLER_5_536
*5984 FILLER_5_543
*5985 FILLER_5_550
*5986 FILLER_5_557
*5987 FILLER_5_564
*5988 FILLER_5_571
*5989 FILLER_5_578
*5990 FILLER_5_585
*5991 FILLER_5_592
*5992 FILLER_5_599
*5993 FILLER_5_60
*5994 FILLER_5_606
*5995 FILLER_5_613
*5996 FILLER_5_620
*5997 FILLER_5_627
*5998 FILLER_5_634
*5999 FILLER_5_641
*6000 FILLER_5_648
*6001 FILLER_5_655
*6002 FILLER_5_662
*6003 FILLER_5_669
*6004 FILLER_5_67
*6005 FILLER_5_676
*6006 FILLER_5_683
*6007 FILLER_5_690
*6008 FILLER_5_697
*6009 FILLER_5_704
*6010 FILLER_5_711
*6011 FILLER_5_718
*6012 FILLER_5_725
*6013 FILLER_5_732
*6014 FILLER_5_739
*6015 FILLER_5_74
*6016 FILLER_5_746
*6017 FILLER_5_753
*6018 FILLER_5_760
*6019 FILLER_5_767
*6020 FILLER_5_774
*6021 FILLER_5_781
*6022 FILLER_5_788
*6023 FILLER_5_795
*6024 FILLER_5_802
*6025 FILLER_5_809
*6026 FILLER_5_81
*6027 FILLER_5_816
*6028 FILLER_5_823
*6029 FILLER_5_830
*6030 FILLER_5_837
*6031 FILLER_5_844
*6032 FILLER_5_851
*6033 FILLER_5_858
*6034 FILLER_5_865
*6035 FILLER_5_872
*6036 FILLER_5_879
*6037 FILLER_5_88
*6038 FILLER_5_886
*6039 FILLER_5_893
*6040 FILLER_5_900
*6041 FILLER_5_907
*6042 FILLER_5_914
*6043 FILLER_5_921
*6044 FILLER_5_928
*6045 FILLER_5_935
*6046 FILLER_5_942
*6047 FILLER_5_949
*6048 FILLER_5_95
*6049 FILLER_5_956
*6050 FILLER_5_963
*6051 FILLER_5_970
*6052 FILLER_5_977
*6053 FILLER_5_984
*6054 FILLER_5_991
*6055 FILLER_5_998
*6056 FILLER_6_1005
*6057 FILLER_6_1012
*6058 FILLER_6_1019
*6059 FILLER_6_102
*6060 FILLER_6_1026
*6061 FILLER_6_1028
*6062 FILLER_6_109
*6063 FILLER_6_11
*6064 FILLER_6_116
*6065 FILLER_6_123
*6066 FILLER_6_130
*6067 FILLER_6_137
*6068 FILLER_6_144
*6069 FILLER_6_151
*6070 FILLER_6_158
*6071 FILLER_6_165
*6072 FILLER_6_172
*6073 FILLER_6_179
*6074 FILLER_6_18
*6075 FILLER_6_186
*6076 FILLER_6_193
*6077 FILLER_6_200
*6078 FILLER_6_207
*6079 FILLER_6_214
*6080 FILLER_6_221
*6081 FILLER_6_228
*6082 FILLER_6_235
*6083 FILLER_6_242
*6084 FILLER_6_249
*6085 FILLER_6_25
*6086 FILLER_6_256
*6087 FILLER_6_263
*6088 FILLER_6_270
*6089 FILLER_6_277
*6090 FILLER_6_284
*6091 FILLER_6_291
*6092 FILLER_6_298
*6093 FILLER_6_305
*6094 FILLER_6_312
*6095 FILLER_6_319
*6096 FILLER_6_32
*6097 FILLER_6_326
*6098 FILLER_6_333
*6099 FILLER_6_340
*6100 FILLER_6_347
*6101 FILLER_6_354
*6102 FILLER_6_361
*6103 FILLER_6_368
*6104 FILLER_6_375
*6105 FILLER_6_382
*6106 FILLER_6_389
*6107 FILLER_6_39
*6108 FILLER_6_396
*6109 FILLER_6_4
*6110 FILLER_6_403
*6111 FILLER_6_410
*6112 FILLER_6_417
*6113 FILLER_6_424
*6114 FILLER_6_431
*6115 FILLER_6_438
*6116 FILLER_6_445
*6117 FILLER_6_452
*6118 FILLER_6_459
*6119 FILLER_6_46
*6120 FILLER_6_466
*6121 FILLER_6_473
*6122 FILLER_6_480
*6123 FILLER_6_487
*6124 FILLER_6_494
*6125 FILLER_6_501
*6126 FILLER_6_508
*6127 FILLER_6_515
*6128 FILLER_6_522
*6129 FILLER_6_529
*6130 FILLER_6_53
*6131 FILLER_6_536
*6132 FILLER_6_543
*6133 FILLER_6_550
*6134 FILLER_6_557
*6135 FILLER_6_564
*6136 FILLER_6_571
*6137 FILLER_6_578
*6138 FILLER_6_585
*6139 FILLER_6_592
*6140 FILLER_6_599
*6141 FILLER_6_60
*6142 FILLER_6_606
*6143 FILLER_6_613
*6144 FILLER_6_620
*6145 FILLER_6_627
*6146 FILLER_6_634
*6147 FILLER_6_641
*6148 FILLER_6_648
*6149 FILLER_6_655
*6150 FILLER_6_662
*6151 FILLER_6_669
*6152 FILLER_6_67
*6153 FILLER_6_676
*6154 FILLER_6_683
*6155 FILLER_6_690
*6156 FILLER_6_697
*6157 FILLER_6_704
*6158 FILLER_6_711
*6159 FILLER_6_718
*6160 FILLER_6_725
*6161 FILLER_6_732
*6162 FILLER_6_739
*6163 FILLER_6_74
*6164 FILLER_6_746
*6165 FILLER_6_753
*6166 FILLER_6_760
*6167 FILLER_6_767
*6168 FILLER_6_774
*6169 FILLER_6_781
*6170 FILLER_6_788
*6171 FILLER_6_795
*6172 FILLER_6_802
*6173 FILLER_6_809
*6174 FILLER_6_81
*6175 FILLER_6_816
*6176 FILLER_6_823
*6177 FILLER_6_830
*6178 FILLER_6_837
*6179 FILLER_6_844
*6180 FILLER_6_851
*6181 FILLER_6_858
*6182 FILLER_6_865
*6183 FILLER_6_872
*6184 FILLER_6_879
*6185 FILLER_6_88
*6186 FILLER_6_886
*6187 FILLER_6_893
*6188 FILLER_6_900
*6189 FILLER_6_907
*6190 FILLER_6_914
*6191 FILLER_6_921
*6192 FILLER_6_928
*6193 FILLER_6_935
*6194 FILLER_6_942
*6195 FILLER_6_949
*6196 FILLER_6_95
*6197 FILLER_6_956
*6198 FILLER_6_963
*6199 FILLER_6_970
*6200 FILLER_6_977
*6201 FILLER_6_984
*6202 FILLER_6_991
*6203 FILLER_6_998
*6204 FILLER_7_0
*6205 FILLER_7_1001
*6206 FILLER_7_1008
*6207 FILLER_7_1015
*6208 FILLER_7_1022
*6209 FILLER_7_105
*6210 FILLER_7_112
*6211 FILLER_7_119
*6212 FILLER_7_126
*6213 FILLER_7_133
*6214 FILLER_7_14
*6215 FILLER_7_140
*6216 FILLER_7_147
*6217 FILLER_7_154
*6218 FILLER_7_161
*6219 FILLER_7_168
*6220 FILLER_7_175
*6221 FILLER_7_182
*6222 FILLER_7_189
*6223 FILLER_7_196
*6224 FILLER_7_203
*6225 FILLER_7_21
*6226 FILLER_7_210
*6227 FILLER_7_217
*6228 FILLER_7_224
*6229 FILLER_7_231
*6230 FILLER_7_238
*6231 FILLER_7_245
*6232 FILLER_7_252
*6233 FILLER_7_259
*6234 FILLER_7_266
*6235 FILLER_7_273
*6236 FILLER_7_28
*6237 FILLER_7_280
*6238 FILLER_7_287
*6239 FILLER_7_294
*6240 FILLER_7_301
*6241 FILLER_7_308
*6242 FILLER_7_315
*6243 FILLER_7_322
*6244 FILLER_7_329
*6245 FILLER_7_336
*6246 FILLER_7_343
*6247 FILLER_7_35
*6248 FILLER_7_350
*6249 FILLER_7_357
*6250 FILLER_7_364
*6251 FILLER_7_371
*6252 FILLER_7_378
*6253 FILLER_7_385
*6254 FILLER_7_392
*6255 FILLER_7_399
*6256 FILLER_7_406
*6257 FILLER_7_413
*6258 FILLER_7_42
*6259 FILLER_7_420
*6260 FILLER_7_427
*6261 FILLER_7_434
*6262 FILLER_7_441
*6263 FILLER_7_448
*6264 FILLER_7_455
*6265 FILLER_7_462
*6266 FILLER_7_469
*6267 FILLER_7_476
*6268 FILLER_7_483
*6269 FILLER_7_49
*6270 FILLER_7_490
*6271 FILLER_7_497
*6272 FILLER_7_504
*6273 FILLER_7_511
*6274 FILLER_7_518
*6275 FILLER_7_525
*6276 FILLER_7_532
*6277 FILLER_7_539
*6278 FILLER_7_546
*6279 FILLER_7_553
*6280 FILLER_7_56
*6281 FILLER_7_560
*6282 FILLER_7_567
*6283 FILLER_7_574
*6284 FILLER_7_581
*6285 FILLER_7_588
*6286 FILLER_7_595
*6287 FILLER_7_602
*6288 FILLER_7_609
*6289 FILLER_7_616
*6290 FILLER_7_623
*6291 FILLER_7_63
*6292 FILLER_7_630
*6293 FILLER_7_637
*6294 FILLER_7_644
*6295 FILLER_7_651
*6296 FILLER_7_658
*6297 FILLER_7_665
*6298 FILLER_7_672
*6299 FILLER_7_679
*6300 FILLER_7_686
*6301 FILLER_7_693
*6302 FILLER_7_7
*6303 FILLER_7_70
*6304 FILLER_7_700
*6305 FILLER_7_707
*6306 FILLER_7_714
*6307 FILLER_7_721
*6308 FILLER_7_728
*6309 FILLER_7_735
*6310 FILLER_7_742
*6311 FILLER_7_749
*6312 FILLER_7_756
*6313 FILLER_7_763
*6314 FILLER_7_77
*6315 FILLER_7_770
*6316 FILLER_7_777
*6317 FILLER_7_784
*6318 FILLER_7_791
*6319 FILLER_7_798
*6320 FILLER_7_805
*6321 FILLER_7_812
*6322 FILLER_7_819
*6323 FILLER_7_826
*6324 FILLER_7_833
*6325 FILLER_7_84
*6326 FILLER_7_840
*6327 FILLER_7_847
*6328 FILLER_7_854
*6329 FILLER_7_861
*6330 FILLER_7_868
*6331 FILLER_7_875
*6332 FILLER_7_882
*6333 FILLER_7_889
*6334 FILLER_7_896
*6335 FILLER_7_903
*6336 FILLER_7_91
*6337 FILLER_7_910
*6338 FILLER_7_917
*6339 FILLER_7_924
*6340 FILLER_7_931
*6341 FILLER_7_938
*6342 FILLER_7_945
*6343 FILLER_7_952
*6344 FILLER_7_959
*6345 FILLER_7_966
*6346 FILLER_7_973
*6347 FILLER_7_98
*6348 FILLER_7_980
*6349 FILLER_7_987
*6350 FILLER_7_994
*6351 FILLER_8_1005
*6352 FILLER_8_1012
*6353 FILLER_8_1019
*6354 FILLER_8_102
*6355 FILLER_8_1026
*6356 FILLER_8_1028
*6357 FILLER_8_109
*6358 FILLER_8_11
*6359 FILLER_8_116
*6360 FILLER_8_123
*6361 FILLER_8_130
*6362 FILLER_8_137
*6363 FILLER_8_144
*6364 FILLER_8_151
*6365 FILLER_8_158
*6366 FILLER_8_165
*6367 FILLER_8_172
*6368 FILLER_8_179
*6369 FILLER_8_18
*6370 FILLER_8_186
*6371 FILLER_8_193
*6372 FILLER_8_200
*6373 FILLER_8_207
*6374 FILLER_8_214
*6375 FILLER_8_221
*6376 FILLER_8_228
*6377 FILLER_8_235
*6378 FILLER_8_242
*6379 FILLER_8_249
*6380 FILLER_8_25
*6381 FILLER_8_256
*6382 FILLER_8_263
*6383 FILLER_8_270
*6384 FILLER_8_277
*6385 FILLER_8_284
*6386 FILLER_8_291
*6387 FILLER_8_298
*6388 FILLER_8_305
*6389 FILLER_8_312
*6390 FILLER_8_319
*6391 FILLER_8_32
*6392 FILLER_8_326
*6393 FILLER_8_333
*6394 FILLER_8_340
*6395 FILLER_8_347
*6396 FILLER_8_354
*6397 FILLER_8_361
*6398 FILLER_8_368
*6399 FILLER_8_375
*6400 FILLER_8_382
*6401 FILLER_8_389
*6402 FILLER_8_39
*6403 FILLER_8_396
*6404 FILLER_8_4
*6405 FILLER_8_403
*6406 FILLER_8_410
*6407 FILLER_8_417
*6408 FILLER_8_424
*6409 FILLER_8_431
*6410 FILLER_8_438
*6411 FILLER_8_445
*6412 FILLER_8_452
*6413 FILLER_8_459
*6414 FILLER_8_46
*6415 FILLER_8_466
*6416 FILLER_8_473
*6417 FILLER_8_480
*6418 FILLER_8_487
*6419 FILLER_8_494
*6420 FILLER_8_501
*6421 FILLER_8_508
*6422 FILLER_8_515
*6423 FILLER_8_522
*6424 FILLER_8_529
*6425 FILLER_8_53
*6426 FILLER_8_536
*6427 FILLER_8_543
*6428 FILLER_8_550
*6429 FILLER_8_557
*6430 FILLER_8_564
*6431 FILLER_8_571
*6432 FILLER_8_578
*6433 FILLER_8_585
*6434 FILLER_8_592
*6435 FILLER_8_599
*6436 FILLER_8_60
*6437 FILLER_8_606
*6438 FILLER_8_613
*6439 FILLER_8_620
*6440 FILLER_8_627
*6441 FILLER_8_634
*6442 FILLER_8_641
*6443 FILLER_8_648
*6444 FILLER_8_655
*6445 FILLER_8_662
*6446 FILLER_8_669
*6447 FILLER_8_67
*6448 FILLER_8_676
*6449 FILLER_8_683
*6450 FILLER_8_690
*6451 FILLER_8_697
*6452 FILLER_8_704
*6453 FILLER_8_711
*6454 FILLER_8_718
*6455 FILLER_8_725
*6456 FILLER_8_732
*6457 FILLER_8_739
*6458 FILLER_8_74
*6459 FILLER_8_746
*6460 FILLER_8_753
*6461 FILLER_8_760
*6462 FILLER_8_767
*6463 FILLER_8_774
*6464 FILLER_8_781
*6465 FILLER_8_788
*6466 FILLER_8_795
*6467 FILLER_8_802
*6468 FILLER_8_809
*6469 FILLER_8_81
*6470 FILLER_8_816
*6471 FILLER_8_823
*6472 FILLER_8_830
*6473 FILLER_8_837
*6474 FILLER_8_844
*6475 FILLER_8_851
*6476 FILLER_8_858
*6477 FILLER_8_865
*6478 FILLER_8_872
*6479 FILLER_8_879
*6480 FILLER_8_88
*6481 FILLER_8_886
*6482 FILLER_8_893
*6483 FILLER_8_900
*6484 FILLER_8_907
*6485 FILLER_8_914
*6486 FILLER_8_921
*6487 FILLER_8_928
*6488 FILLER_8_935
*6489 FILLER_8_942
*6490 FILLER_8_949
*6491 FILLER_8_95
*6492 FILLER_8_956
*6493 FILLER_8_963
*6494 FILLER_8_970
*6495 FILLER_8_977
*6496 FILLER_8_984
*6497 FILLER_8_991
*6498 FILLER_8_998
*6499 FILLER_9_1006
*6500 FILLER_9_1013
*6501 FILLER_9_102
*6502 FILLER_9_1020
*6503 FILLER_9_1027
*6504 FILLER_9_109
*6505 FILLER_9_11
*6506 FILLER_9_116
*6507 FILLER_9_123
*6508 FILLER_9_130
*6509 FILLER_9_137
*6510 FILLER_9_144
*6511 FILLER_9_151
*6512 FILLER_9_158
*6513 FILLER_9_165
*6514 FILLER_9_172
*6515 FILLER_9_179
*6516 FILLER_9_18
*6517 FILLER_9_25
*6518 FILLER_9_32
*6519 FILLER_9_39
*6520 FILLER_9_390
*6521 FILLER_9_397
*6522 FILLER_9_4
*6523 FILLER_9_404
*6524 FILLER_9_411
*6525 FILLER_9_418
*6526 FILLER_9_425
*6527 FILLER_9_432
*6528 FILLER_9_439
*6529 FILLER_9_446
*6530 FILLER_9_453
*6531 FILLER_9_46
*6532 FILLER_9_460
*6533 FILLER_9_467
*6534 FILLER_9_474
*6535 FILLER_9_481
*6536 FILLER_9_488
*6537 FILLER_9_495
*6538 FILLER_9_502
*6539 FILLER_9_509
*6540 FILLER_9_516
*6541 FILLER_9_523
*6542 FILLER_9_53
*6543 FILLER_9_530
*6544 FILLER_9_537
*6545 FILLER_9_544
*6546 FILLER_9_551
*6547 FILLER_9_558
*6548 FILLER_9_565
*6549 FILLER_9_572
*6550 FILLER_9_579
*6551 FILLER_9_586
*6552 FILLER_9_593
*6553 FILLER_9_60
*6554 FILLER_9_600
*6555 FILLER_9_607
*6556 FILLER_9_614
*6557 FILLER_9_621
*6558 FILLER_9_628
*6559 FILLER_9_635
*6560 FILLER_9_642
*6561 FILLER_9_649
*6562 FILLER_9_656
*6563 FILLER_9_663
*6564 FILLER_9_67
*6565 FILLER_9_670
*6566 FILLER_9_677
*6567 FILLER_9_684
*6568 FILLER_9_691
*6569 FILLER_9_698
*6570 FILLER_9_705
*6571 FILLER_9_712
*6572 FILLER_9_719
*6573 FILLER_9_726
*6574 FILLER_9_733
*6575 FILLER_9_74
*6576 FILLER_9_740
*6577 FILLER_9_747
*6578 FILLER_9_754
*6579 FILLER_9_761
*6580 FILLER_9_768
*6581 FILLER_9_775
*6582 FILLER_9_782
*6583 FILLER_9_789
*6584 FILLER_9_796
*6585 FILLER_9_803
*6586 FILLER_9_81
*6587 FILLER_9_810
*6588 FILLER_9_817
*6589 FILLER_9_824
*6590 FILLER_9_831
*6591 FILLER_9_838
*6592 FILLER_9_845
*6593 FILLER_9_852
*6594 FILLER_9_859
*6595 FILLER_9_866
*6596 FILLER_9_873
*6597 FILLER_9_88
*6598 FILLER_9_880
*6599 FILLER_9_887
*6600 FILLER_9_894
*6601 FILLER_9_901
*6602 FILLER_9_908
*6603 FILLER_9_915
*6604 FILLER_9_922
*6605 FILLER_9_929
*6606 FILLER_9_936
*6607 FILLER_9_943
*6608 FILLER_9_95
*6609 FILLER_9_950
*6610 FILLER_9_957
*6611 FILLER_9_964
*6612 FILLER_9_971
*6613 FILLER_9_978
*6614 FILLER_9_985
*6615 FILLER_9_992
*6616 FILLER_9_999
*6617 _08_
*6618 _09_
*6619 _10_
*6620 _11_
*6621 _12_
*6622 _13_
*6623 _14_
*6624 _15_
*6625 counter_0
*6626 heichips26_digital_project
*6627 heichips26_digital_project_19
*6628 heichips26_digital_project_20
*6629 heichips26_digital_project_21
*6630 heichips26_digital_project_22
*6631 heichips26_digital_project_23
*6632 heichips26_digital_project_24
*6633 heichips26_digital_project_25
*6634 input1
*6635 input2
*6636 output10
*6637 output11
*6638 output12
*6639 output13
*6640 output14
*6641 output15
*6642 output16
*6643 output17
*6644 output18
*6645 output3
*6646 output4
*6647 output5
*6648 output6
*6649 output7
*6650 output8
*6651 output9

*PORTS
clk I
ena I
rst_n I
ui_in[0] I
ui_in[1] I
ui_in[2] I
ui_in[3] I
ui_in[4] I
ui_in[5] I
ui_in[6] I
ui_in[7] I
uio_in[0] I
uio_in[1] I
uio_in[2] I
uio_in[3] I
uio_in[4] I
uio_in[5] I
uio_in[6] I
uio_in[7] I
uio_oe[0] O
uio_oe[1] O
uio_oe[2] O
uio_oe[3] O
uio_oe[4] O
uio_oe[5] O
uio_oe[6] O
uio_oe[7] O
uio_out[0] O
uio_out[1] O
uio_out[2] O
uio_out[3] O
uio_out[4] O
uio_out[5] O
uio_out[6] O
uio_out[7] O
uo_out[0] O
uo_out[1] O
uo_out[2] O
uo_out[3] O
uo_out[4] O
uo_out[5] O
uo_out[6] O
uo_out[7] O

*D_NET *3 0.0133748
*CONN
*P clk I
*I *6625:clk_i I *D counter
*CAP
1 clk 0.00218984
2 *6625:clk_i 0.00407092
3 *3:15 0.00449754
4 *3:11 0.00261645
5 *6625:clk_i *6635:A 0
*RES
1 clk *3:11 49.7464 
2 *3:11 *3:15 25.8298 
3 *3:15 *6625:clk_i 51.1112 
*END

*D_NET *5 0.000608452
*CONN
*P rst_n I
*I *6634:A I *D sg13cmos5l_buf_1
*CAP
1 rst_n 0.000304226
2 *6634:A 0.000304226
3 *6634:A *46:8 0
*RES
1 rst_n *6634:A 43.296 
*END

*D_NET *6 0.000613899
*CONN
*P ui_in[0] I
*I *6635:A I *D sg13cmos5l_buf_1
*CAP
1 ui_in[0] 0.000299249
2 *6635:A 0.000299249
3 *6635:A uio_oe[7] 1.54008e-05
4 *6635:A *46:12 0
5 *6625:clk_i *6635:A 0
*RES
1 ui_in[0] *6635:A 43.399 
*END

*D_NET *22 0.000619213
*CONN
*P uio_oe[0] O
*I *6626:L_HI O *D sg13cmos5l_tiehi
*CAP
1 uio_oe[0] 0.000309606
2 *6626:L_HI 0.000309606
3 uio_oe[0] uio_oe[1] 0
4 uio_oe[0] uio_out[7] 0
5 uio_oe[0] *56:10 0
*RES
1 *6626:L_HI uio_oe[0] 43.5123 
*END

*D_NET *23 0.000474229
*CONN
*P uio_oe[1] O
*I *6627:L_HI O *D sg13cmos5l_tiehi
*CAP
1 uio_oe[1] 0.000237115
2 *6627:L_HI 0.000237115
3 uio_oe[1] uio_oe[2] 0
4 uio_oe[1] *56:10 0
5 uio_oe[0] uio_oe[1] 0
*RES
1 *6627:L_HI uio_oe[1] 42.6471 
*END

*D_NET *24 0.00057212
*CONN
*P uio_oe[2] O
*I *6628:L_HI O *D sg13cmos5l_tiehi
*CAP
1 uio_oe[2] 0.00028606
2 *6628:L_HI 0.00028606
3 uio_oe[2] uio_oe[3] 0
4 uio_oe[2] *56:10 0
5 uio_oe[1] uio_oe[2] 0
*RES
1 *6628:L_HI uio_oe[2] 43.0797 
*END

*D_NET *25 0.000445013
*CONN
*P uio_oe[3] O
*I *6629:L_HI O *D sg13cmos5l_tiehi
*CAP
1 uio_oe[3] 0.000182568
2 *6629:L_HI 0.000182568
3 uio_oe[3] uio_oe[4] 0
4 uio_oe[3] *46:12 7.98779e-05
5 uio_oe[2] uio_oe[3] 0
*RES
1 *6629:L_HI uio_oe[3] 42.2145 
*END

*D_NET *26 0.00056677
*CONN
*P uio_oe[4] O
*I *6630:L_HI O *D sg13cmos5l_tiehi
*CAP
1 uio_oe[4] 0.000210782
2 *6630:L_HI 0.000210782
3 uio_oe[4] uio_oe[5] 0
4 uio_oe[4] *46:12 0.000145206
5 uio_oe[3] uio_oe[4] 0
*RES
1 *6630:L_HI uio_oe[4] 42.6471 
*END

*D_NET *27 0.000261007
*CONN
*P uio_oe[5] O
*I *6631:L_HI O *D sg13cmos5l_tiehi
*CAP
1 uio_oe[5] 0.000130504
2 *6631:L_HI 0.000130504
3 uio_oe[5] uio_oe[6] 0
4 uio_oe[4] uio_oe[5] 0
*RES
1 *6631:L_HI uio_oe[5] 41.6789 
*END

*D_NET *28 0.00043387
*CONN
*P uio_oe[6] O
*I *6632:L_HI O *D sg13cmos5l_tiehi
*CAP
1 uio_oe[6] 0.000176821
2 *6632:L_HI 0.000176821
3 uio_oe[6] uio_oe[7] 0
4 uio_oe[6] *46:12 8.02269e-05
5 uio_oe[5] uio_oe[6] 0
*RES
1 *6632:L_HI uio_oe[6] 42.2145 
*END

*D_NET *29 0.00100506
*CONN
*P uio_oe[7] O
*I *6633:L_HI O *D sg13cmos5l_tiehi
*CAP
1 uio_oe[7] 0.000325078
2 *6633:L_HI 0.000325078
3 uio_oe[7] *46:12 0.000339508
4 uio_oe[6] uio_oe[7] 0
5 *6635:A uio_oe[7] 1.54008e-05
*RES
1 *6633:L_HI uio_oe[7] 43.9449 
*END

*D_NET *30 0.000541918
*CONN
*P uio_out[0] O
*I *6645:X O *D sg13cmos5l_buf_1
*CAP
1 uio_out[0] 0.000214669
2 *6645:X 0.000214669
3 uio_out[0] uio_out[1] 0
4 uio_out[0] uo_out[7] 0
5 uio_out[0] *48:8 0
6 uio_out[0] *50:14 0.000112579
*RES
1 *6645:X uio_out[0] 42.4308 
*END

*D_NET *31 0.000448034
*CONN
*P uio_out[1] O
*I *6646:X O *D sg13cmos5l_buf_1
*CAP
1 uio_out[1] 0.000184187
2 *6646:X 0.000184187
3 uio_out[1] uio_out[2] 0
4 uio_out[1] *50:14 7.96596e-05
5 uio_out[0] uio_out[1] 0
*RES
1 *6646:X uio_out[1] 42.2145 
*END

*D_NET *32 0.000309818
*CONN
*P uio_out[2] O
*I *6647:X O *D sg13cmos5l_buf_1
*CAP
1 uio_out[2] 0.000154909
2 *6647:X 0.000154909
3 uio_out[2] uio_out[3] 0
4 uio_out[1] uio_out[2] 0
*RES
1 *6647:X uio_out[2] 41.9982 
*END

*D_NET *33 0.000255669
*CONN
*P uio_out[3] O
*I *6648:X O *D sg13cmos5l_buf_1
*CAP
1 uio_out[3] 0.000127834
2 *6648:X 0.000127834
3 uio_out[3] uio_out[4] 0
4 uio_out[2] uio_out[3] 0
*RES
1 *6648:X uio_out[3] 41.6789 
*END

*D_NET *34 0.00025445
*CONN
*P uio_out[4] O
*I *6649:X O *D sg13cmos5l_buf_1
*CAP
1 uio_out[4] 0.000127225
2 *6649:X 0.000127225
3 uio_out[4] uio_out[5] 0
4 uio_out[3] uio_out[4] 0
*RES
1 *6649:X uio_out[4] 41.6789 
*END

*D_NET *35 0.000371232
*CONN
*P uio_out[5] O
*I *6650:X O *D sg13cmos5l_buf_1
*CAP
1 uio_out[5] 0.000185616
2 *6650:X 0.000185616
3 uio_out[5] uio_out[6] 0
4 uio_out[5] *6650:A 0
5 uio_out[4] uio_out[5] 0
*RES
1 *6650:X uio_out[5] 42.2145 
*END

*D_NET *36 0.000549051
*CONN
*P uio_out[6] O
*I *6651:X O *D sg13cmos5l_buf_1
*CAP
1 uio_out[6] 0.000274526
2 *6651:X 0.000274526
3 uio_out[6] uio_out[7] 0
4 uio_out[6] *56:10 0
5 uio_out[5] uio_out[6] 0
*RES
1 *6651:X uio_out[6] 43.0797 
*END

*D_NET *37 0.000502102
*CONN
*P uio_out[7] O
*I *6636:X O *D sg13cmos5l_buf_1
*CAP
1 uio_out[7] 0.000251051
2 *6636:X 0.000251051
3 uio_out[7] *56:10 0
4 uio_oe[0] uio_out[7] 0
5 uio_out[6] uio_out[7] 0
*RES
1 *6636:X uio_out[7] 42.8634 
*END

*D_NET *38 0.000388971
*CONN
*P uo_out[0] O
*I *6637:X O *D sg13cmos5l_buf_1
*CAP
1 uo_out[0] 0.000194486
2 *6637:X 0.000194486
3 uo_out[0] uo_out[1] 0
*RES
1 *6637:X uo_out[0] 42.2145 
*END

*D_NET *39 0.000317684
*CONN
*P uo_out[1] O
*I *6638:X O *D sg13cmos5l_buf_1
*CAP
1 uo_out[1] 0.000158842
2 *6638:X 0.000158842
3 uo_out[1] uo_out[2] 0
4 uo_out[0] uo_out[1] 0
*RES
1 *6638:X uo_out[1] 41.9982 
*END

*D_NET *40 0.000277576
*CONN
*P uo_out[2] O
*I *6639:X O *D sg13cmos5l_buf_1
*CAP
1 uo_out[2] 0.000138788
2 *6639:X 0.000138788
3 uo_out[2] uo_out[3] 0
4 uo_out[1] uo_out[2] 0
*RES
1 *6639:X uo_out[2] 41.6789 
*END

*D_NET *41 0.000283179
*CONN
*P uo_out[3] O
*I *6640:X O *D sg13cmos5l_buf_1
*CAP
1 uo_out[3] 0.000141589
2 *6640:X 0.000141589
3 uo_out[3] uo_out[4] 0
4 uo_out[2] uo_out[3] 0
*RES
1 *6640:X uo_out[3] 41.6789 
*END

*D_NET *42 0.000528943
*CONN
*P uo_out[4] O
*I *6641:X O *D sg13cmos5l_buf_1
*CAP
1 uo_out[4] 0.000184212
2 *6641:X 0.000184212
3 uo_out[4] uo_out[5] 0
4 uo_out[4] *6638:A 8.02595e-05
5 uo_out[4] *50:14 8.02595e-05
6 uo_out[3] uo_out[4] 0
*RES
1 *6641:X uo_out[4] 42.2145 
*END

*D_NET *43 0.000777506
*CONN
*P uo_out[5] O
*I *6642:X O *D sg13cmos5l_buf_1
*CAP
1 uo_out[5] 0.00028388
2 *6642:X 0.00028388
3 uo_out[5] uo_out[6] 0
4 uo_out[5] *48:14 0
5 uo_out[5] *50:14 0.000209747
6 uo_out[4] uo_out[5] 0
*RES
1 *6642:X uo_out[5] 43.0797 
*END

*D_NET *44 0.000698307
*CONN
*P uo_out[6] O
*I *6643:X O *D sg13cmos5l_buf_1
*CAP
1 uo_out[6] 0.000260525
2 *6643:X 0.000260525
3 uo_out[6] uo_out[7] 0
4 uo_out[6] *48:14 0
5 uo_out[6] *50:14 0.000177257
6 uo_out[5] uo_out[6] 0
*RES
1 *6643:X uo_out[6] 42.8634 
*END

*D_NET *45 0.000624616
*CONN
*P uo_out[7] O
*I *6644:X O *D sg13cmos5l_buf_1
*CAP
1 uo_out[7] 0.000239924
2 *6644:X 0.000239924
3 uo_out[7] *48:14 0
4 uo_out[7] *50:14 0.000144767
5 uio_out[0] uo_out[7] 0
6 uo_out[6] uo_out[7] 0
*RES
1 *6644:X uo_out[7] 42.6471 
*END

*D_NET *46 0.019526
*CONN
*I *6625:rst_ni I *D counter
*I *6634:X O *D sg13cmos5l_buf_1
*CAP
1 *6625:rst_ni 0.00396032
2 *6634:X 0.00244627
3 *46:12 0.0060465
4 *46:8 0.00453245
5 *46:12 *56:10 0.00189561
6 *46:12 *63:13 0
7 uio_oe[3] *46:12 7.98779e-05
8 uio_oe[4] *46:12 0.000145206
9 uio_oe[6] *46:12 8.02269e-05
10 uio_oe[7] *46:12 0.000339508
11 *6634:A *46:8 0
12 *6635:A *46:12 0
*RES
1 *6634:X *46:8 47.7688 
2 *46:8 *46:12 44.2668 
3 *46:12 *6625:rst_ni 49.628 
*END

*D_NET *47 0.0310421
*CONN
*I *6624:A I *D sg13cmos5l_buf_1
*I *6636:A I *D sg13cmos5l_buf_1
*I *6625:count_o[7] O *D counter
*CAP
1 *6624:A 0.000346611
2 *6636:A 0.000210476
3 *6625:count_o[7] 0.00173725
4 *47:18 0.00130086
5 *47:14 0.00316907
6 *47:10 0.00576412
7 *47:8 0.00507606
8 *6624:A *6623:A 0.000371997
9 *6624:A *59:25 0
10 *6624:A *61:13 0.000599008
11 *6636:A *6651:A 0
12 *47:8 *62:9 0
13 *47:8 *63:9 0
14 *47:10 *62:9 0.0124667
*RES
1 *6625:count_o[7] *47:8 39.243 
2 *47:8 *47:10 57.7006 
3 *47:10 *47:14 47.3568 
4 *47:14 *47:18 28.5078 
5 *47:18 *6636:A 42.3278 
6 *47:18 *6624:A 43.9964 
*END

*D_NET *48 0.00475461
*CONN
*I *6637:A I *D sg13cmos5l_buf_1
*I *6617:X O *D sg13cmos5l_buf_1
*CAP
1 *6637:A 0
2 *6617:X 0.000265046
3 *48:14 0.00148901
4 *48:8 0.00175406
5 *48:8 *55:18 0.00012816
6 *48:8 *57:30 0
7 *48:14 *6638:A 0.00111833
8 *48:14 *50:14 0
9 uio_out[0] *48:8 0
10 uo_out[5] *48:14 0
11 uo_out[6] *48:14 0
12 uo_out[7] *48:14 0
*RES
1 *6617:X *48:8 42.8222 
2 *48:8 *48:14 36.9847 
3 *48:14 *6637:A 20 
*END

*D_NET *49 0.00640814
*CONN
*I *6638:A I *D sg13cmos5l_buf_1
*I *6618:X O *D sg13cmos5l_buf_1
*CAP
1 *6638:A 0.000754513
2 *6618:X 5.77221e-05
3 *49:16 0.0015984
4 *49:8 0.000901605
5 *6638:A *50:14 0
6 *49:8 *57:30 0.000181192
7 *49:16 *50:14 0
8 *49:16 *51:20 0.00114993
9 *49:16 *52:18 0
10 *49:16 *53:14 0
11 *49:16 *54:12 0.000566191
12 uo_out[4] *6638:A 8.02595e-05
13 *48:14 *6638:A 0.00111833
*RES
1 *6618:X *49:8 40.8446 
2 *49:8 *49:16 49.9395 
3 *49:16 *6638:A 48.3018 
*END

*D_NET *50 0.00479977
*CONN
*I *6639:A I *D sg13cmos5l_buf_1
*I *6619:X O *D sg13cmos5l_buf_1
*CAP
1 *6639:A 0
2 *6619:X 0.000207272
3 *50:14 0.00162135
4 *50:8 0.00182863
5 *50:8 *6646:A 0
6 *50:8 *59:33 0
7 *50:14 *6646:A 8.03692e-05
8 *50:14 *51:20 0.000177512
9 *50:14 *53:14 0
10 *50:14 *57:30 8.03692e-05
11 uio_out[0] *50:14 0.000112579
12 uio_out[1] *50:14 7.96596e-05
13 uo_out[4] *50:14 8.02595e-05
14 uo_out[5] *50:14 0.000209747
15 uo_out[6] *50:14 0.000177257
16 uo_out[7] *50:14 0.000144767
17 *6638:A *50:14 0
18 *48:14 *50:14 0
19 *49:16 *50:14 0
*RES
1 *6619:X *50:8 42.0806 
2 *50:8 *50:14 36.2431 
3 *50:14 *6639:A 20 
*END

*D_NET *51 0.00579339
*CONN
*I *6640:A I *D sg13cmos5l_buf_1
*I *6620:X O *D sg13cmos5l_buf_1
*CAP
1 *6640:A 0
2 *6620:X 0.00161971
3 *51:20 0.00161971
4 *51:20 *52:12 0.00120436
5 *51:20 *54:12 2.21754e-05
6 *49:16 *51:20 0.00114993
7 *50:14 *51:20 0.000177512
*RES
1 *6620:X *51:20 37.6954 
2 *51:20 *6640:A 20 
*END

*D_NET *52 0.00501468
*CONN
*I *6641:A I *D sg13cmos5l_buf_1
*I *6621:X O *D sg13cmos5l_buf_1
*CAP
1 *6641:A 0
2 *6621:X 0.00153125
3 *52:18 0.000136859
4 *52:12 0.00166811
5 *52:12 *6617:A 0
6 *52:12 *6618:A 0.000274611
7 *52:12 *6619:A 0
8 *52:12 *54:12 0
9 *52:12 *57:13 0
10 *52:12 *59:25 0.000199482
11 *49:16 *52:18 0
12 *51:20 *52:12 0.00120436
*RES
1 *6621:X *52:12 36.0783 
2 *52:12 *52:18 41.5862 
3 *52:18 *6641:A 20 
*END

*D_NET *53 0.00460031
*CONN
*I *6642:A I *D sg13cmos5l_buf_1
*I *6622:X O *D sg13cmos5l_buf_1
*CAP
1 *6642:A 0
2 *6622:X 0.000176917
3 *53:14 0.00131492
4 *53:8 0.00149184
5 *53:8 *60:32 0
6 *53:8 *61:28 0
7 *53:14 *6646:A 8.02105e-05
8 *53:14 *54:12 0
9 *53:14 *55:12 0.0013759
10 *53:14 *57:30 8.02434e-05
11 *53:14 *59:33 8.0276e-05
12 *49:16 *53:14 0
13 *50:14 *53:14 0
*RES
1 *6622:X *53:8 41.5862 
2 *53:8 *53:14 33.4312 
3 *53:14 *6642:A 20 
*END

*D_NET *54 0.00444595
*CONN
*I *6643:A I *D sg13cmos5l_buf_1
*I *6623:X O *D sg13cmos5l_buf_1
*CAP
1 *6643:A 0
2 *6623:X 0.00143637
3 *54:18 7.98186e-05
4 *54:12 0.00151619
5 *54:12 *55:12 0.000825209
6 *54:12 *59:25 0
7 *49:16 *54:12 0.000566191
8 *51:20 *54:12 2.21754e-05
9 *52:12 *54:12 0
10 *53:14 *54:12 0
*RES
1 *6623:X *54:12 34.5951 
2 *54:12 *54:18 40.8446 
3 *54:18 *6643:A 20 
*END

*D_NET *55 0.0052761
*CONN
*I *6644:A I *D sg13cmos5l_buf_1
*I *6624:X O *D sg13cmos5l_buf_1
*CAP
1 *6644:A 0
2 *6624:X 0.000117274
3 *55:18 4.08278e-05
4 *55:12 0.00115447
5 *55:8 0.00123092
6 *55:8 *6650:A 0
7 *55:12 *56:10 0.000403339
8 *55:12 *59:25 0
9 *48:8 *55:18 0.00012816
10 *53:14 *55:12 0.0013759
11 *54:12 *55:12 0.000825209
*RES
1 *6624:X *55:8 41.339 
2 *55:8 *55:12 33.081 
3 *55:12 *55:18 40.5974 
4 *55:18 *6644:A 20 
*END

*D_NET *56 0.0151434
*CONN
*I *6625:enable_i I *D counter
*I *6635:X O *D sg13cmos5l_buf_1
*CAP
1 *6625:enable_i 0.00399973
2 *6635:X 0.00234222
3 *56:12 0.00399973
4 *56:10 0.00234222
5 *6625:enable_i *6650:A 0
6 *6625:enable_i *61:28 0
7 *6625:enable_i *62:17 0
8 *56:10 *6650:A 0.000112749
9 *56:10 *6651:A 4.77699e-05
10 *56:10 *59:25 0
11 *56:10 *63:13 0
12 uio_oe[0] *56:10 0
13 uio_oe[1] *56:10 0
14 uio_oe[2] *56:10 0
15 uio_out[6] *56:10 0
16 uio_out[7] *56:10 0
17 *46:12 *56:10 0.00189561
18 *55:12 *56:10 0.000403339
*RES
1 *6635:X *56:10 46.5122 
2 *56:10 *56:12 20 
3 *56:12 *6625:enable_i 49.1336 
*END

*D_NET *57 0.0420041
*CONN
*I *6645:A I *D sg13cmos5l_buf_1
*I *6617:A I *D sg13cmos5l_buf_1
*I *6625:count_o[0] O *D counter
*CAP
1 *6645:A 0
2 *6617:A 0.0001793
3 *6625:count_o[0] 0.000180539
4 *57:30 0.000284902
5 *57:13 0.00503023
6 *57:11 0.00456603
7 *57:9 0.00190497
8 *57:7 0.00208551
9 *57:9 *58:9 0.0106488
10 *57:9 *63:9 0.0108372
11 *57:13 *6618:A 0
12 *57:13 *6619:A 0.000339552
13 *57:13 *6621:A 0.000274583
14 *57:13 *58:13 0
15 *57:13 *59:25 0
16 *57:13 *61:13 0.00533078
17 *57:13 *63:13 0
18 *57:30 *6646:A 0
19 *57:30 *58:17 0
20 *48:8 *57:30 0
21 *49:8 *57:30 0.000181192
22 *50:14 *57:30 8.03692e-05
23 *52:12 *6617:A 0
24 *52:12 *57:13 0
25 *53:14 *57:30 8.02434e-05
*RES
1 *6625:count_o[0] *57:7 21.7716 
2 *57:7 *57:9 49.7902 
3 *57:9 *57:11 20 
4 *57:11 *57:13 44.8771 
5 *57:13 *6617:A 21.9982 
6 *57:13 *57:30 43.3578 
7 *57:30 *6645:A 20 
*END

*D_NET *58 0.0297575
*CONN
*I *6618:A I *D sg13cmos5l_buf_1
*I *6646:A I *D sg13cmos5l_buf_1
*I *6625:count_o[1] O *D counter
*CAP
1 *6618:A 0.000185067
2 *6646:A 0.000274331
3 *6625:count_o[1] 0.000202049
4 *58:17 0.000555878
5 *58:13 0.00529579
6 *58:11 0.00519931
7 *58:9 0.00337955
8 *58:7 0.00358159
9 *58:9 *63:9 0
10 *58:13 *60:13 0
11 *58:13 *60:21 0
12 *50:8 *6646:A 0
13 *50:14 *6646:A 8.03692e-05
14 *52:12 *6618:A 0.000274611
15 *53:14 *6646:A 8.02105e-05
16 *57:9 *58:9 0.0106488
17 *57:13 *6618:A 0
18 *57:13 *58:13 0
19 *57:30 *6646:A 0
20 *57:30 *58:17 0
*RES
1 *6625:count_o[1] *58:7 21.9879 
2 *58:7 *58:9 54.2398 
3 *58:9 *58:11 20 
4 *58:11 *58:13 42.9304 
5 *58:13 *58:17 21.0918 
6 *58:17 *6646:A 42.8634 
7 *58:17 *6618:A 41.8334 
*END

*D_NET *59 0.0375773
*CONN
*I *6619:A I *D sg13cmos5l_buf_1
*I *6647:A I *D sg13cmos5l_buf_1
*I *6625:count_o[2] O *D counter
*CAP
1 *6619:A 0.000263616
2 *6647:A 0
3 *6625:count_o[2] 0.000117452
4 *59:33 0.000259897
5 *59:25 0.00430524
6 *59:11 0.00378173
7 *59:9 0.00517144
8 *59:7 0.00528889
9 *6619:A *6621:A 0
10 *59:9 *60:9 0.0126777
11 *59:9 *63:9 0
12 *59:25 *6621:A 0
13 *59:25 *6622:A 0.00024122
14 *59:25 *6623:A 0.000394173
15 *59:25 *61:13 0
16 *59:25 *63:13 0.00445657
17 *59:33 *60:32 0
18 *6624:A *59:25 0
19 *50:8 *59:33 0
20 *52:12 *6619:A 0
21 *52:12 *59:25 0.000199482
22 *53:14 *59:33 8.0276e-05
23 *54:12 *59:25 0
24 *55:12 *59:25 0
25 *56:10 *59:25 0
26 *57:13 *6619:A 0.000339552
27 *57:13 *59:25 0
*RES
1 *6625:count_o[2] *59:7 21.1227 
2 *59:7 *59:9 60.667 
3 *59:9 *59:11 20 
4 *59:11 *59:25 41.0764 
5 *59:25 *59:33 42.8634 
6 *59:33 *6647:A 20 
7 *59:25 *6619:A 22.9664 
*END

*D_NET *60 0.0410389
*CONN
*I *6648:A I *D sg13cmos5l_buf_1
*I *6620:A I *D sg13cmos5l_buf_1
*I *6625:count_o[3] O *D counter
*CAP
1 *6648:A 0
2 *6620:A 0
3 *6625:count_o[3] 9.40127e-05
4 *60:32 0.00031651
5 *60:21 0.000362573
6 *60:13 0.004652
7 *60:11 0.00397292
8 *60:9 0.00256163
9 *60:7 0.00265564
10 *60:9 *61:9 0.0137459
11 *60:9 *63:9 0
12 *60:13 *62:13 0
13 *60:32 *61:28 0
14 *53:8 *60:32 0
15 *58:13 *60:13 0
16 *58:13 *60:21 0
17 *59:9 *60:9 0.0126777
18 *59:33 *60:32 0
*RES
1 *6625:count_o[3] *60:7 20.9064 
2 *60:7 *60:9 63.6334 
3 *60:9 *60:11 20 
4 *60:11 *60:13 37.5229 
5 *60:13 *60:21 43.8522 
6 *60:21 *6620:A 20 
7 *60:13 *60:32 43.811 
8 *60:32 *6648:A 20 
*END

*D_NET *61 0.0479614
*CONN
*I *6649:A I *D sg13cmos5l_buf_1
*I *6621:A I *D sg13cmos5l_buf_1
*I *6625:count_o[4] O *D counter
*CAP
1 *6649:A 0
2 *6621:A 0.00021337
3 *6625:count_o[4] 7.47829e-05
4 *61:28 0.000276639
5 *61:13 0.00363033
6 *61:11 0.00314032
7 *61:9 0.00290551
8 *61:7 0.0029803
9 *6621:A *6622:A 1.54008e-05
10 *61:9 *62:9 0.0145487
11 *61:9 *63:9 0
12 *61:13 *6622:A 0.000225819
13 *61:13 *6623:A 0
14 *61:28 *6650:A 0
15 *6619:A *6621:A 0
16 *6624:A *61:13 0.000599008
17 *6625:enable_i *61:28 0
18 *53:8 *61:28 0
19 *57:13 *6621:A 0.000274583
20 *57:13 *61:13 0.00533078
21 *59:25 *6621:A 0
22 *59:25 *61:13 0
23 *60:9 *61:9 0.0137459
24 *60:32 *61:28 0
*RES
1 *6625:count_o[4] *61:7 20.6901 
2 *61:7 *61:9 69.8134 
3 *61:9 *61:11 20 
4 *61:11 *61:13 35.5762 
5 *61:13 *6621:A 22.1836 
6 *61:13 *61:28 42.575 
7 *61:28 *6649:A 20 
*END

*D_NET *62 0.0419185
*CONN
*I *6622:A I *D sg13cmos5l_buf_1
*I *6650:A I *D sg13cmos5l_buf_1
*I *6625:count_o[5] O *D counter
*CAP
1 *6622:A 0.000133115
2 *6650:A 0.000296578
3 *6625:count_o[5] 5.13435e-05
4 *62:17 0.000720084
5 *62:13 0.00330412
6 *62:11 0.00301373
7 *62:9 0.00336882
8 *62:7 0.00342016
9 *62:9 *63:9 0
10 uio_out[5] *6650:A 0
11 *6621:A *6622:A 1.54008e-05
12 *6625:enable_i *6650:A 0
13 *6625:enable_i *62:17 0
14 *47:8 *62:9 0
15 *47:10 *62:9 0.0124667
16 *55:8 *6650:A 0
17 *56:10 *6650:A 0.000112749
18 *59:25 *6622:A 0.00024122
19 *60:13 *62:13 0
20 *61:9 *62:9 0.0145487
21 *61:13 *6622:A 0.000225819
22 *61:28 *6650:A 0
*RES
1 *6625:count_o[5] *62:7 20.4738 
2 *62:7 *62:9 72.2854 
3 *62:9 *62:11 20 
4 *62:11 *62:13 33.8458 
5 *62:13 *62:17 22.8222 
6 *62:17 *6650:A 43.0797 
7 *62:17 *6622:A 41.6171 
*END

*D_NET *63 0.036996
*CONN
*I *6623:A I *D sg13cmos5l_buf_1
*I *6651:A I *D sg13cmos5l_buf_1
*I *6625:count_o[6] O *D counter
*CAP
1 *6623:A 0.000488068
2 *6651:A 0.000166466
3 *6625:count_o[6] 0.000142727
4 *63:15 0.000654533
5 *63:13 0.00253348
6 *63:11 0.00253348
7 *63:9 0.00711343
8 *63:7 0.00725616
9 *6624:A *6623:A 0.000371997
10 *6636:A *6651:A 0
11 *46:12 *63:13 0
12 *47:8 *63:9 0
13 *56:10 *6651:A 4.77699e-05
14 *56:10 *63:13 0
15 *57:9 *63:9 0.0108372
16 *57:13 *63:13 0
17 *58:9 *63:9 0
18 *59:9 *63:9 0
19 *59:25 *6623:A 0.000394173
20 *59:25 *63:13 0.00445657
21 *60:9 *63:9 0
22 *61:9 *63:9 0
23 *61:13 *6623:A 0
24 *62:9 *63:9 0
*RES
1 *6625:count_o[6] *63:7 21.5553 
2 *63:7 *63:9 80.6902 
3 *63:9 *63:11 20 
4 *63:11 *63:13 30.1687 
5 *63:13 *63:15 20 
6 *63:15 *6651:A 41.9055 
7 *63:15 *6623:A 45.1603 
*END
